In48 Ga6 Cu36 Ag18 Se108                
   1.0000000000000000     
    16.2895135104351887    0.0001365832388388   -7.2643860100299857
    -3.2470768955242661   15.9706386900026391   -7.2831299199535637
     0.0010460447736340    0.0017313893429541   21.8555066753334728
   In   Ga   Cu   Ag   Se
    48     6    36    18   108
Direct
  0.1623799096659013  0.4974529302499562  0.9957984452877895
  0.5020414050545199  0.5007485875511506  0.9992668176513035
  0.8333002988684370  0.5008269959763822  0.0006206714307453
  0.1664288114259662  0.8303067888422433  0.9989397070950901
  0.5008478010683106  0.8331705786670724  0.9991566918862773
  0.8304423527709091  0.8337669860544210  0.9995754541677258
  0.5048455955563611  0.1646137050156256  0.0016927092759005
  0.8325334252055399  0.1662668009521866  0.0001152344704280
  0.1688039141802449  0.5036359012521885  0.3328974977193724
  0.5003970776981390  0.5001942634651826  0.3343756169140164
  0.8291228722116628  0.5014015759563435  0.3295931815418456
  0.1633983609001817  0.8281091727099863  0.3333986586116353
  0.5000211504282817  0.8314507341545010  0.3337605505193650
  0.8342989281694031  0.8301317287658634  0.3303989924376793
  0.1615004798692112  0.1643008333059583  0.3299679949005565
  0.5020377835827219  0.1691563310143493  0.3287080210931634
  0.8307612349615141  0.1625436118280632  0.3285039388293214
  0.1701801925882762  0.5054386204653056  0.6709762130204808
  0.8337324897868399  0.5045996227727017  0.6693953899739071
  0.1715501633132561  0.8350287959192499  0.6710194317978733
  0.4986366783295892  0.8336249978100128  0.6676059581093412
  0.8351841520706813  0.8341636933866425  0.6698329524951063
  0.1671317525564575  0.1641361683386862  0.6682474911094047
  0.5005544270394893  0.1657774605296325  0.6667585707644861
  0.8372475327977398  0.1681411978357659  0.6732784292111305
  0.2453291282944221  0.4166408274371278  0.1640169902688555
  0.5844808652781666  0.4147867109185910  0.1627333262779018
  0.9139485916357373  0.4197185935294883  0.1651171910240805
  0.2462070399214156  0.7416456321403260  0.1628985165113974
  0.5865813347551168  0.7498827397880774  0.1658514515176819
  0.9136800292218368  0.7467621328367997  0.1634503221220740
  0.2459961465077214  0.0863768443005029  0.1625247225309394
  0.2565425921391125  0.4217500901361646  0.5031370366462582
  0.5838492660947026  0.4210748726113565  0.5029293527605176
  0.9122443516913066  0.4197531817837046  0.5008234067131880
  0.2518720143505249  0.7514810879118556  0.5016845724703458
  0.5807372451498622  0.7462402270283590  0.4982780978471908
  0.9188139705067186  0.7506422016161949  0.5017336147826299
  0.2484343532521720  0.0791196480059497  0.5023420633237663
  0.5854889510912642  0.0845336274696251  0.4995830165968727
  0.9179377357529432  0.0787685968452934  0.4992633194919378
  0.2508476419091181  0.4173548308222905  0.8347126999937871
  0.5858770213520685  0.4199972222443691  0.8329014795739198
  0.9148947634200866  0.4186600609000450  0.8341929062695996
  0.5833619899650131  0.7503809603962068  0.8345613413812032
  0.9166731960309988  0.7496866541887144  0.8375518173292278
  0.2515504696203408  0.0860279516125075  0.8361491105750218
  0.5835112865932288  0.0804934068065037  0.8350052461967010
  0.1612033599608864  0.1681413216892906  0.9957172973107831
  0.5018449253256207  0.5032136310505138  0.6708404000501602
  0.5910982127828674  0.0847781200667796  0.1667023469672628
  0.9102753485890673  0.0783710640551902  0.1628561402889801
  0.2528518657853311  0.7469846173026085  0.8314905330329410
  0.9182883359617762  0.0859180842898724  0.8362229147292624
  0.9992855841163717  0.3320826501935130  0.9950861594105831
  0.3275776739026810  0.3306438704394239  0.9969226202303503
  0.6703967125312076  0.3337615227723063  0.0009608920513244
  0.9951313553273309  0.6609464973899932  0.9957076011005341
  0.3299107805231287  0.6622289562743759  0.9901716269496958
  0.6673990703956179  0.6671457307126403  0.0006680268988930
  0.9949727227100595  0.0051049163531971  0.9975327916938710
  0.6684174221498935  0.0008302821675414  0.0035923865512686
  0.3349666153169508  0.3380243335417177  0.3362108822104588
  0.6691365181159767  0.3336905391550928  0.3297549281002645
  0.9992210565376496  0.6670575299591235  0.3301234681033804
  0.3318746209667864  0.6668652036384444  0.3347843612634094
  0.6687543897044819  0.6628762057104467  0.3337211832262525
  0.9934992200610253  0.9960534215238681  0.3301283660037839
  0.6679459019422325  0.9962217952047610  0.3266074749371555
  0.3381177260118307  0.3402957490066711  0.6702561434210210
  0.6669014902669446  0.3379255023168568  0.6732589708317605
  0.0011187686243943  0.6685599074254895  0.6711168927614040
  0.3405277186817557  0.6653907090142397  0.6719227322426988
  0.0045545991096887  0.0026872551569213  0.6704603557370135
  0.3306434986722593  0.9962108979896911  0.6662631682279923
  0.0813721044539335  0.5818350066701043  0.1652057738821782
  0.7492930052667575  0.5834197075948211  0.1654345037225440
  0.7502698136796440  0.9187795082544525  0.1648552553027542
  0.7466421351716619  0.2435755562985449  0.1626449883643915
  0.4132992555326851  0.5810306681955666  0.5006766393680877
  0.7541383974590801  0.5863187123712379  0.4985555665596237
  0.0822722125130682  0.9141430662726506  0.5016208118471397
  0.4159186608329932  0.9111867484084542  0.4996919467907830
  0.0860107392463192  0.5916517398679488  0.8371636410109815
  0.4193433224578129  0.5852866389904250  0.8324970631432791
  0.7491918590931164  0.5821233779137813  0.8345789720077832
  0.4180051327695153  0.9155560899439834  0.8325048091124998
  0.7547491954798176  0.9206744676010032  0.8402675198295313
  0.0840008798661245  0.2464808752847674  0.8389079492129170
  0.7509009358094119  0.2525447193041757  0.8379859501254359
  0.3345477260449456  0.9968910645132496  0.9970199636139370
  0.9970361336632365  0.3346374150756972  0.3297932268920292
  0.3339252365849390  0.0007568608926221  0.3365267296842092
  0.0044724629262660  0.3363469244792228  0.6724582186467174
  0.6656918279260751  0.6670233209339500  0.6689783272292331
  0.6675937275611901  0.0066847409624557  0.6711313665647509
  0.4176313028777585  0.5835050991111714  0.1649980933680482
  0.0742089945045947  0.9125789347600843  0.1596537909658551
  0.4278275287547615  0.9175770333347089  0.1695136523781500
  0.0800458229883318  0.2489225936209252  0.1633743275295529
  0.4122996703315494  0.2508192383222649  0.1622650167665043
  0.0840191785681839  0.5906596338130470  0.5045211392595661
  0.7487866579935343  0.9171903441930809  0.4969362128909935
  0.0899213526760434  0.2505705258799225  0.4984914746251263
  0.4176846991551670  0.2574970168892818  0.5053896381208389
  0.7431359174085301  0.2439146860056596  0.4966987828015732
  0.0791469240723615  0.9138184688965083  0.8318530131739266
  0.4181733281212630  0.2496907026742079  0.8328362486475385
  0.1110605706401557  0.4580169551683611  0.0803208213712452
  0.4483524332481110  0.4476191230165654  0.0747611462647626
  0.7801471590873845  0.4603678143682330  0.0826303757212870
  0.1135688022581363  0.7796006325277460  0.0758433598390056
  0.4500916874144067  0.7800357662433015  0.0755295384558252
  0.7801921100491569  0.7921553074349390  0.0830371315418290
  0.1160980784475427  0.1212807097238553  0.0700162977530425
  0.4670816820914823  0.1212675380396462  0.0892945462260286
  0.7866500832004846  0.1217825069236724  0.0861778270931524
  0.1251697943765393  0.4612080212156187  0.4179199435968002
  0.4485420290738844  0.4603425262531502  0.4189230467093239
  0.7806219165612802  0.4600307960154097  0.4140153531627391
  0.1136872128824393  0.7891828943485422  0.4187460413472763
  0.4477495042584678  0.7897277994782854  0.4160295116809536
  0.7849658051071131  0.7831684434437207  0.4111839187470778
  0.1158248426736392  0.1119629630531591  0.4095276644911152
  0.4595940529214104  0.1305583619561190  0.4164620866448985
  0.7849106547621574  0.1146383123582453  0.4107401503458519
  0.1241915474511686  0.4708118495524616  0.7589947700827011
  0.4526477094534656  0.4626677910861972  0.7477508451414465
  0.7815221299664685  0.4607136365617848  0.7512848549758004
  0.1259546552873232  0.7827357475290668  0.7517416112818580
  0.4500191076944020  0.7915745049999074  0.7514099074615714
  0.7891786449926386  0.7999829453665939  0.7585473326095169
  0.1172241552448767  0.1266051920572906  0.7535379599944747
  0.4504355950955343  0.1139987418772321  0.7446616522377738
  0.7966546378135533  0.1330281266234792  0.7646031475728066
  0.2933350894748727  0.6232099398595707  0.0718598135227566
  0.6366523904661037  0.6247454096596172  0.0829783925989673
  0.9682449710343022  0.6239946176783349  0.0823517937083693
  0.2946600074464527  0.9573000208057394  0.0852042785416387
  0.6336049027294877  0.9632176747576793  0.0870324713990769
  0.9544055190872527  0.9677443064657183  0.0784288750977709
  0.2830053466113895  0.2878594515961694  0.0719205158125007
  0.6373732118642792  0.2897331255907574  0.0812288587571715
  0.9589333151056678  0.2965023229421391  0.0762793290681785
  0.3030659442395489  0.6267593336303747  0.4190966606261313
  0.6354668357471738  0.6245202566549324  0.4164688609403484
  0.9609603296840419  0.6269864220077608  0.4098340189173939
  0.2978043673872222  0.9515972271464719  0.4216694102109457
  0.6271984788816383  0.9614214410732771  0.4075651223318246
  0.9690349551694268  0.9544213683264786  0.4160645210686766
  0.2916739772174637  0.2932244010851761  0.4104600475981357
  0.6284543401452893  0.2988362464083210  0.4112001030986434
  0.9570213537710472  0.2922395910959850  0.4169878514616627
  0.3031575836811555  0.6313297050138900  0.7553149077789882
  0.6275567249121892  0.6175850882195064  0.7534540875689473
  0.9689018856289024  0.6285274166629051  0.7536489294037096
  0.3040373638111475  0.9611858157096478  0.7540822105349747
  0.6349072997046790  0.9540568024589859  0.7567887298442955
  0.9586124978820365  0.9695573761809300  0.7503811352772587
  0.2946077150621136  0.2947563572421359  0.7446396361243757
  0.6358808589641072  0.2907848615714244  0.7524186617434623
  0.9699704220408307  0.2913699878650604  0.7604931968076727
  0.2138220154957367  0.3711123769332474  0.2536469069886635
  0.5480834493018207  0.3720222439991190  0.2519429623752387
  0.8628692948157024  0.3664431170372637  0.2411672144915684
  0.2065792613534043  0.6943253922677286  0.2495053867194557
  0.5521990217968167  0.7049253224745371  0.2552941479161390
  0.8740029305411952  0.6950963075839951  0.2466141696422781
  0.2058206714171220  0.0380488452554886  0.2459467859301725
  0.5557815047635586  0.0436234212979514  0.2489289105963834
  0.8755907771025875  0.0311562285722360  0.2435117888150771
  0.2181311620458715  0.3765352723474606  0.5899784979182172
  0.5492926769816293  0.3828498404643952  0.5967219161452135
  0.8726231469262942  0.3727719131078899  0.5850908560790629
  0.2221565553821350  0.7067400625583531  0.5927033357406231
  0.5318308712937281  0.6989596777922387  0.5785279669066767
  0.8787988070042090  0.7001299518029072  0.5866755846327578
  0.2065070225133852  0.0279880900037597  0.5853291239307055
  0.5331275050334128  0.0316593644019818  0.5756164827742722
  0.8828727375216872  0.0384229143661301  0.5902476437377970
  0.2060330228401952  0.3630244655971993  0.9147930885044033
  0.5517686297086115  0.3722813017916948  0.9204575393344570
  0.8741345936219957  0.3670576716049823  0.9172495254749080
  0.2121208175509040  0.7030394525598780  0.9111118373643166
  0.5440253697301003  0.6988091523211040  0.9181340707124050
  0.8714274573355212  0.6972075010534908  0.9177124885312864
  0.2046890954868275  0.0475050286666203  0.9212643847791071
  0.5427480231524058  0.0286386334351363  0.9180806397181129
  0.8761082688552122  0.0368096056988492  0.9123592721827265
  0.0411689427556041  0.5519879479200327  0.2492227687702737
  0.3715149382746787  0.5493165879980353  0.2536923004236797
  0.7050228246672674  0.5516099101220675  0.2458511725883810
  0.0371756274131556  0.8795958513501390  0.2531303488479111
  0.3721841042392739  0.8716727567762916  0.2469519323175575
  0.7110447965893982  0.8835139051799672  0.2470272475695765
  0.0285533178929782  0.1991574975909032  0.2409287969882214
  0.3702859912147147  0.2188582294030610  0.2534413851307988
  0.7045809317243865  0.2129490034749892  0.2452551570960964
  0.0388683971393462  0.5507356954541365  0.5897888005777503
  0.3859075206408562  0.5520396119355553  0.5917461630678034
  0.7127616621477131  0.5491548921360305  0.5783188239901662
  0.0438878286376436  0.8854909923357610  0.5878672880587743
  0.3755995539843013  0.8858192626239330  0.5847641550498253
  0.7067713139156737  0.8753293195580554  0.5834283145817949
  0.0427201031275715  0.2089384962869119  0.5827785563498580
  0.3702805353080620  0.2160299810141666  0.5895748458252541
  0.7080634919798641  0.2184670193872620  0.5942429782065517
  0.0399579428379440  0.5516936555255114  0.9137240654756198
  0.3775028284003454  0.5492535729488850  0.9136271239586122
  0.7100827359204942  0.5538594795718339  0.9187997956051746
  0.0378526617660029  0.8836223749885264  0.9247121825769540
  0.3713475408139928  0.8695231101461900  0.9054738601587005
  0.7069907197381937  0.8858553189519895  0.9177825016850321
  0.0392644543712350  0.2101640770328075  0.9173056999180318
  0.3766300756820655  0.2166196547323977  0.9240840661818908
  0.7064597689440859  0.2165590797472916  0.9168853785736317

  0.00000000E+00  0.00000000E+00  0.00000000E+00
  0.00000000E+00  0.00000000E+00  0.00000000E+00
  0.00000000E+00  0.00000000E+00  0.00000000E+00
  0.00000000E+00  0.00000000E+00  0.00000000E+00
  0.00000000E+00  0.00000000E+00  0.00000000E+00
  0.00000000E+00  0.00000000E+00  0.00000000E+00
  0.00000000E+00  0.00000000E+00  0.00000000E+00
  0.00000000E+00  0.00000000E+00  0.00000000E+00
  0.00000000E+00  0.00000000E+00  0.00000000E+00
  0.00000000E+00  0.00000000E+00  0.00000000E+00
  0.00000000E+00  0.00000000E+00  0.00000000E+00
  0.00000000E+00  0.00000000E+00  0.00000000E+00
  0.00000000E+00  0.00000000E+00  0.00000000E+00
  0.00000000E+00  0.00000000E+00  0.00000000E+00
  0.00000000E+00  0.00000000E+00  0.00000000E+00
  0.00000000E+00  0.00000000E+00  0.00000000E+00
  0.00000000E+00  0.00000000E+00  0.00000000E+00
  0.00000000E+00  0.00000000E+00  0.00000000E+00
  0.00000000E+00  0.00000000E+00  0.00000000E+00
  0.00000000E+00  0.00000000E+00  0.00000000E+00
  0.00000000E+00  0.00000000E+00  0.00000000E+00
  0.00000000E+00  0.00000000E+00  0.00000000E+00
  0.00000000E+00  0.00000000E+00  0.00000000E+00
  0.00000000E+00  0.00000000E+00  0.00000000E+00
  0.00000000E+00  0.00000000E+00  0.00000000E+00
  0.00000000E+00  0.00000000E+00  0.00000000E+00
  0.00000000E+00  0.00000000E+00  0.00000000E+00
  0.00000000E+00  0.00000000E+00  0.00000000E+00
  0.00000000E+00  0.00000000E+00  0.00000000E+00
  0.00000000E+00  0.00000000E+00  0.00000000E+00
  0.00000000E+00  0.00000000E+00  0.00000000E+00
  0.00000000E+00  0.00000000E+00  0.00000000E+00
  0.00000000E+00  0.00000000E+00  0.00000000E+00
  0.00000000E+00  0.00000000E+00  0.00000000E+00
  0.00000000E+00  0.00000000E+00  0.00000000E+00
  0.00000000E+00  0.00000000E+00  0.00000000E+00
  0.00000000E+00  0.00000000E+00  0.00000000E+00
  0.00000000E+00  0.00000000E+00  0.00000000E+00
  0.00000000E+00  0.00000000E+00  0.00000000E+00
  0.00000000E+00  0.00000000E+00  0.00000000E+00
  0.00000000E+00  0.00000000E+00  0.00000000E+00
  0.00000000E+00  0.00000000E+00  0.00000000E+00
  0.00000000E+00  0.00000000E+00  0.00000000E+00
  0.00000000E+00  0.00000000E+00  0.00000000E+00
  0.00000000E+00  0.00000000E+00  0.00000000E+00
  0.00000000E+00  0.00000000E+00  0.00000000E+00
  0.00000000E+00  0.00000000E+00  0.00000000E+00
  0.00000000E+00  0.00000000E+00  0.00000000E+00
  0.00000000E+00  0.00000000E+00  0.00000000E+00
  0.00000000E+00  0.00000000E+00  0.00000000E+00
  0.00000000E+00  0.00000000E+00  0.00000000E+00
  0.00000000E+00  0.00000000E+00  0.00000000E+00
  0.00000000E+00  0.00000000E+00  0.00000000E+00
  0.00000000E+00  0.00000000E+00  0.00000000E+00
  0.00000000E+00  0.00000000E+00  0.00000000E+00
  0.00000000E+00  0.00000000E+00  0.00000000E+00
  0.00000000E+00  0.00000000E+00  0.00000000E+00
  0.00000000E+00  0.00000000E+00  0.00000000E+00
  0.00000000E+00  0.00000000E+00  0.00000000E+00
  0.00000000E+00  0.00000000E+00  0.00000000E+00
  0.00000000E+00  0.00000000E+00  0.00000000E+00
  0.00000000E+00  0.00000000E+00  0.00000000E+00
  0.00000000E+00  0.00000000E+00  0.00000000E+00
  0.00000000E+00  0.00000000E+00  0.00000000E+00
  0.00000000E+00  0.00000000E+00  0.00000000E+00
  0.00000000E+00  0.00000000E+00  0.00000000E+00
  0.00000000E+00  0.00000000E+00  0.00000000E+00
  0.00000000E+00  0.00000000E+00  0.00000000E+00
  0.00000000E+00  0.00000000E+00  0.00000000E+00
  0.00000000E+00  0.00000000E+00  0.00000000E+00
  0.00000000E+00  0.00000000E+00  0.00000000E+00
  0.00000000E+00  0.00000000E+00  0.00000000E+00
  0.00000000E+00  0.00000000E+00  0.00000000E+00
  0.00000000E+00  0.00000000E+00  0.00000000E+00
  0.00000000E+00  0.00000000E+00  0.00000000E+00
  0.00000000E+00  0.00000000E+00  0.00000000E+00
  0.00000000E+00  0.00000000E+00  0.00000000E+00
  0.00000000E+00  0.00000000E+00  0.00000000E+00
  0.00000000E+00  0.00000000E+00  0.00000000E+00
  0.00000000E+00  0.00000000E+00  0.00000000E+00
  0.00000000E+00  0.00000000E+00  0.00000000E+00
  0.00000000E+00  0.00000000E+00  0.00000000E+00
  0.00000000E+00  0.00000000E+00  0.00000000E+00
  0.00000000E+00  0.00000000E+00  0.00000000E+00
  0.00000000E+00  0.00000000E+00  0.00000000E+00
  0.00000000E+00  0.00000000E+00  0.00000000E+00
  0.00000000E+00  0.00000000E+00  0.00000000E+00
  0.00000000E+00  0.00000000E+00  0.00000000E+00
  0.00000000E+00  0.00000000E+00  0.00000000E+00
  0.00000000E+00  0.00000000E+00  0.00000000E+00
  0.00000000E+00  0.00000000E+00  0.00000000E+00
  0.00000000E+00  0.00000000E+00  0.00000000E+00
  0.00000000E+00  0.00000000E+00  0.00000000E+00
  0.00000000E+00  0.00000000E+00  0.00000000E+00
  0.00000000E+00  0.00000000E+00  0.00000000E+00
  0.00000000E+00  0.00000000E+00  0.00000000E+00
  0.00000000E+00  0.00000000E+00  0.00000000E+00
  0.00000000E+00  0.00000000E+00  0.00000000E+00
  0.00000000E+00  0.00000000E+00  0.00000000E+00
  0.00000000E+00  0.00000000E+00  0.00000000E+00
  0.00000000E+00  0.00000000E+00  0.00000000E+00
  0.00000000E+00  0.00000000E+00  0.00000000E+00
  0.00000000E+00  0.00000000E+00  0.00000000E+00
  0.00000000E+00  0.00000000E+00  0.00000000E+00
  0.00000000E+00  0.00000000E+00  0.00000000E+00
  0.00000000E+00  0.00000000E+00  0.00000000E+00
  0.00000000E+00  0.00000000E+00  0.00000000E+00
  0.00000000E+00  0.00000000E+00  0.00000000E+00
  0.00000000E+00  0.00000000E+00  0.00000000E+00
  0.00000000E+00  0.00000000E+00  0.00000000E+00
  0.00000000E+00  0.00000000E+00  0.00000000E+00
  0.00000000E+00  0.00000000E+00  0.00000000E+00
  0.00000000E+00  0.00000000E+00  0.00000000E+00
  0.00000000E+00  0.00000000E+00  0.00000000E+00
  0.00000000E+00  0.00000000E+00  0.00000000E+00
  0.00000000E+00  0.00000000E+00  0.00000000E+00
  0.00000000E+00  0.00000000E+00  0.00000000E+00
  0.00000000E+00  0.00000000E+00  0.00000000E+00
  0.00000000E+00  0.00000000E+00  0.00000000E+00
  0.00000000E+00  0.00000000E+00  0.00000000E+00
  0.00000000E+00  0.00000000E+00  0.00000000E+00
  0.00000000E+00  0.00000000E+00  0.00000000E+00
  0.00000000E+00  0.00000000E+00  0.00000000E+00
  0.00000000E+00  0.00000000E+00  0.00000000E+00
  0.00000000E+00  0.00000000E+00  0.00000000E+00
  0.00000000E+00  0.00000000E+00  0.00000000E+00
  0.00000000E+00  0.00000000E+00  0.00000000E+00
  0.00000000E+00  0.00000000E+00  0.00000000E+00
  0.00000000E+00  0.00000000E+00  0.00000000E+00
  0.00000000E+00  0.00000000E+00  0.00000000E+00
  0.00000000E+00  0.00000000E+00  0.00000000E+00
  0.00000000E+00  0.00000000E+00  0.00000000E+00
  0.00000000E+00  0.00000000E+00  0.00000000E+00
  0.00000000E+00  0.00000000E+00  0.00000000E+00
  0.00000000E+00  0.00000000E+00  0.00000000E+00
  0.00000000E+00  0.00000000E+00  0.00000000E+00
  0.00000000E+00  0.00000000E+00  0.00000000E+00
  0.00000000E+00  0.00000000E+00  0.00000000E+00
  0.00000000E+00  0.00000000E+00  0.00000000E+00
  0.00000000E+00  0.00000000E+00  0.00000000E+00
  0.00000000E+00  0.00000000E+00  0.00000000E+00
  0.00000000E+00  0.00000000E+00  0.00000000E+00
  0.00000000E+00  0.00000000E+00  0.00000000E+00
  0.00000000E+00  0.00000000E+00  0.00000000E+00
  0.00000000E+00  0.00000000E+00  0.00000000E+00
  0.00000000E+00  0.00000000E+00  0.00000000E+00
  0.00000000E+00  0.00000000E+00  0.00000000E+00
  0.00000000E+00  0.00000000E+00  0.00000000E+00
  0.00000000E+00  0.00000000E+00  0.00000000E+00
  0.00000000E+00  0.00000000E+00  0.00000000E+00
  0.00000000E+00  0.00000000E+00  0.00000000E+00
  0.00000000E+00  0.00000000E+00  0.00000000E+00
  0.00000000E+00  0.00000000E+00  0.00000000E+00
  0.00000000E+00  0.00000000E+00  0.00000000E+00
  0.00000000E+00  0.00000000E+00  0.00000000E+00
  0.00000000E+00  0.00000000E+00  0.00000000E+00
  0.00000000E+00  0.00000000E+00  0.00000000E+00
  0.00000000E+00  0.00000000E+00  0.00000000E+00
  0.00000000E+00  0.00000000E+00  0.00000000E+00
  0.00000000E+00  0.00000000E+00  0.00000000E+00
  0.00000000E+00  0.00000000E+00  0.00000000E+00
  0.00000000E+00  0.00000000E+00  0.00000000E+00
  0.00000000E+00  0.00000000E+00  0.00000000E+00
  0.00000000E+00  0.00000000E+00  0.00000000E+00
  0.00000000E+00  0.00000000E+00  0.00000000E+00
  0.00000000E+00  0.00000000E+00  0.00000000E+00
  0.00000000E+00  0.00000000E+00  0.00000000E+00
  0.00000000E+00  0.00000000E+00  0.00000000E+00
  0.00000000E+00  0.00000000E+00  0.00000000E+00
  0.00000000E+00  0.00000000E+00  0.00000000E+00
  0.00000000E+00  0.00000000E+00  0.00000000E+00
  0.00000000E+00  0.00000000E+00  0.00000000E+00
  0.00000000E+00  0.00000000E+00  0.00000000E+00
  0.00000000E+00  0.00000000E+00  0.00000000E+00
  0.00000000E+00  0.00000000E+00  0.00000000E+00
  0.00000000E+00  0.00000000E+00  0.00000000E+00
  0.00000000E+00  0.00000000E+00  0.00000000E+00
  0.00000000E+00  0.00000000E+00  0.00000000E+00
  0.00000000E+00  0.00000000E+00  0.00000000E+00
  0.00000000E+00  0.00000000E+00  0.00000000E+00
  0.00000000E+00  0.00000000E+00  0.00000000E+00
  0.00000000E+00  0.00000000E+00  0.00000000E+00
  0.00000000E+00  0.00000000E+00  0.00000000E+00
  0.00000000E+00  0.00000000E+00  0.00000000E+00
  0.00000000E+00  0.00000000E+00  0.00000000E+00
  0.00000000E+00  0.00000000E+00  0.00000000E+00
  0.00000000E+00  0.00000000E+00  0.00000000E+00
  0.00000000E+00  0.00000000E+00  0.00000000E+00
  0.00000000E+00  0.00000000E+00  0.00000000E+00
  0.00000000E+00  0.00000000E+00  0.00000000E+00
  0.00000000E+00  0.00000000E+00  0.00000000E+00
  0.00000000E+00  0.00000000E+00  0.00000000E+00
  0.00000000E+00  0.00000000E+00  0.00000000E+00
  0.00000000E+00  0.00000000E+00  0.00000000E+00
  0.00000000E+00  0.00000000E+00  0.00000000E+00
  0.00000000E+00  0.00000000E+00  0.00000000E+00
  0.00000000E+00  0.00000000E+00  0.00000000E+00
  0.00000000E+00  0.00000000E+00  0.00000000E+00
  0.00000000E+00  0.00000000E+00  0.00000000E+00
  0.00000000E+00  0.00000000E+00  0.00000000E+00
  0.00000000E+00  0.00000000E+00  0.00000000E+00
  0.00000000E+00  0.00000000E+00  0.00000000E+00
  0.00000000E+00  0.00000000E+00  0.00000000E+00
  0.00000000E+00  0.00000000E+00  0.00000000E+00
  0.00000000E+00  0.00000000E+00  0.00000000E+00
  0.00000000E+00  0.00000000E+00  0.00000000E+00
  0.00000000E+00  0.00000000E+00  0.00000000E+00
  0.00000000E+00  0.00000000E+00  0.00000000E+00
  0.00000000E+00  0.00000000E+00  0.00000000E+00
  0.00000000E+00  0.00000000E+00  0.00000000E+00
  0.00000000E+00  0.00000000E+00  0.00000000E+00
  0.00000000E+00  0.00000000E+00  0.00000000E+00
  0.00000000E+00  0.00000000E+00  0.00000000E+00
  0.00000000E+00  0.00000000E+00  0.00000000E+00
  0.00000000E+00  0.00000000E+00  0.00000000E+00
  0.00000000E+00  0.00000000E+00  0.00000000E+00
