In6 Ga48 Cu6 Ag48 Se108                 
   1.0000000000000000     
    16.3433375222235711    0.0000838872602976   -7.6585665624673993
    -3.5767396604422768   15.9409884507986597   -7.6417149515816432
     0.0153247958175478    0.0191435946004348   21.2998140554613968
   In   Ga   Cu   Ag   Se
     6    48     6    48   108
Direct
  0.5008233965588218  0.5010198048541952  0.3335099149447274
  0.1664388865704467  0.1618159595013609  0.6630728086261044
  0.5855161923249810  0.0804367706284026  0.4998813763943772
  0.2522857939289551  0.4226213657316507  0.8348385104799476
  0.5822102045024664  0.4179404063211365  0.8335324090436913
  0.9150880070298797  0.0801307568832499  0.8349444541866333
  0.1683347009382103  0.5048227331866002  0.0014371519735974
  0.5009349997623858  0.5079505433826270  0.0066593682950895
  0.8367777624604003  0.5038432994676185  0.0024070647080521
  0.1690438685500624  0.8310508114353183  0.9995444601176828
  0.4974114599300421  0.8331503845595094  0.9977968173670604
  0.8330753991389201  0.8356948080908779  0.9994081042571779
  0.1702663241652402  0.1672168740991751  0.0047217022631401
  0.5004494585195118  0.1610859319104279  0.0002952313609939
  0.8313433644514419  0.1624637378611027  0.0027329108317318
  0.1665658836566806  0.5002204526056531  0.3327283281807709
  0.8319950604901933  0.5005344234612750  0.3328314246006983
  0.1692698340105991  0.8340420788589071  0.3300023357040942
  0.5034418578824358  0.8361202754897974  0.3321070054307071
  0.8281125564907512  0.8369091124395425  0.3333746893813370
  0.1693371277168438  0.1635399428543209  0.3341399229670117
  0.4975440150456478  0.1613410373232185  0.3318371165627454
  0.8297801086152958  0.1627345081369356  0.3324985780191128
  0.1632215033703375  0.5007270422597472  0.6624590890899711
  0.4964324819135015  0.5031981799216751  0.6648899957270658
  0.8321985646636776  0.5011597671912824  0.6667375488781886
  0.1687741910534655  0.8323222289675982  0.6670519460757234
  0.5015516758508909  0.8338565955219650  0.6675070480642091
  0.8324462898711147  0.8340189046488931  0.6651179107278509
  0.5001329168398740  0.1611707692836291  0.6672601276915628
  0.8330736261480212  0.1673861446921379  0.6666538221003719
  0.2470212093834405  0.4181866141181416  0.1654699570601181
  0.5840039859265715  0.4133738971141696  0.1642888887095353
  0.9164570286659028  0.4150927366690524  0.1664467059528505
  0.2535885860734979  0.7541871528997035  0.1664779933942597
  0.5803840803619451  0.7534216956622686  0.1655025708792905
  0.9161384739754510  0.7530189937154361  0.1672840284698083
  0.2509965012918656  0.0799192932700308  0.1669651646170962
  0.5840789997472768  0.0797045903513123  0.1684136031578944
  0.9170558963172013  0.0823801913831446  0.1686957592602241
  0.2484154685575746  0.4169314179853245  0.4980761519783883
  0.5813897624259070  0.4148641468118583  0.5020318598513782
  0.9152264760724478  0.4168004293508147  0.4983053162316864
  0.2511479165288719  0.7501873701275983  0.4992670039813305
  0.5880135588459581  0.7570060065938193  0.5013471095033921
  0.9141365912501414  0.7525794427063204  0.5008973281806064
  0.2538267127865055  0.0787946338686325  0.4967179433829187
  0.9079347232953978  0.0794602366133716  0.4967131243688954
  0.9184342071722327  0.4170598604363107  0.8339615615902929
  0.2524630837498307  0.7497812094492176  0.8321440025420586
  0.5823683179696815  0.7550022800309577  0.8331496220186594
  0.9142045543971093  0.7544536216893647  0.8332291081902241
  0.2523298798123932  0.0787413965143173  0.8367646760091318
  0.5843711941988445  0.0772833127086514  0.8347199032283825
  0.3341170536100648  0.6730476393655422  0.0019815758970338
  0.3324887878629426  0.9978082310519767  0.3292402934539638
  0.6646292989946687  0.9969422446644174  0.3322327084668544
  0.7497907343432288  0.9165007659469637  0.4981098227468195
  0.4168586394513127  0.9154904317860755  0.8315370552808048
  0.7479074815050240  0.9147955666143730  0.8339372974549235
  0.9991157625275662  0.3385849190376859  0.0037403763198824
  0.3365429074990089  0.3335720913728935  0.0030220687363780
  0.6674260138155788  0.3351956909173808  0.9997705707976934
  0.0001589935658686  0.6663363200634365  0.9990953902761035
  0.6663098133095176  0.6692875923168060  0.0030632062888785
  0.0014659249140934  0.9990241945545577  0.0004214460820222
  0.3358148727277737  0.9928264442351136  0.9979963430749450
  0.6652216609919890  0.9974425440204442  0.9985059730584211
  0.9996011444880324  0.3293739509910623  0.3331133424709520
  0.3314340001838616  0.3273089498983808  0.3301848430217120
  0.6677306325014811  0.3286910219058754  0.3368274346537845
  0.9989766657472430  0.6702634858617387  0.3321722768486595
  0.3352523107931091  0.6731743156433225  0.3362077761318787
  0.6681656709312875  0.6720017671941818  0.3317176059281834
  0.0026828334304909  0.0006306939837870  0.3361403793941662
  0.9942410520766245  0.3317683576622272  0.6656382678610413
  0.3306282602874901  0.3304224337827364  0.6578020463694401
  0.6687838811098743  0.3369027916328378  0.6702215106838381
  0.9998386042309306  0.6642340948268384  0.6651807613571066
  0.3353401762720907  0.6693334863875364  0.6677431617905967
  0.6712017056154167  0.6707899804766484  0.6691657254372103
  0.9963749686408221  0.9999285394971622  0.6610295370259465
  0.3342705264558887  0.9985126427333313  0.6705616163779311
  0.6682580052960603  0.9950514045698000  0.6694782197300384
  0.0838315577784385  0.5859824117404244  0.1702229559783248
  0.4100162665806337  0.5846241682712190  0.1617802713051546
  0.7534469710066602  0.5827642801051240  0.1692889493017589
  0.0859500331123328  0.9187797153352619  0.1678560897359489
  0.4201503166782956  0.9172540214003035  0.1685458582250590
  0.7502263326659957  0.9163085537396469  0.1682625811008762
  0.0835726315587806  0.2505551396255896  0.1682523639599154
  0.4169249596933042  0.2479109397001409  0.1645519690572570
  0.7496111168403203  0.2526069812644778  0.1691454113198745
  0.0803726917943663  0.5854162626462198  0.4942689857945979
  0.4197131037131356  0.5890294871353206  0.5011615992431047
  0.7503534489173944  0.5813099221464384  0.5013537264623906
  0.0774636066342680  0.9090683537645106  0.4934196995631837
  0.4085493032702132  0.9124084550953313  0.4940240668549407
  0.0806427761694053  0.2477348990892096  0.4973417693866793
  0.4181704107433077  0.2487209211900776  0.4992384464364577
  0.7528829391873018  0.2487075587070251  0.4950786502262758
  0.0844441261607543  0.5914699693267025  0.8333806825338286
  0.4178519411002242  0.5884750376111398  0.8369030434196389
  0.7486115812208283  0.5879272690077642  0.8312694481887135
  0.0867786254569722  0.9147084987992500  0.8340561331956167
  0.0862099417955804  0.2486642342490200  0.8385344121036695
  0.4190398574833054  0.2455564262295127  0.8378958191752233
  0.7508193806548746  0.2507899637098205  0.8398134489189673
  0.1334623351519824  0.4631828551195696  0.0839653416773629
  0.4680606424034650  0.4603726151814698  0.0865040477126300
  0.8020202816037951  0.4587579884640007  0.0832092181403610
  0.1343536662320517  0.7922982275097894  0.0829181480855397
  0.4592427354694379  0.7874910760081661  0.0774893296830257
  0.8004760572876606  0.7940001419537239  0.0829994840032739
  0.1350563722324125  0.1240168346843191  0.0860794239017793
  0.4678575235360256  0.1206771432796643  0.0844363812566655
  0.7991457995883522  0.1243508848077539  0.0876304014861446
  0.1318726895001419  0.4575585937432081  0.4143662354962601
  0.4637404057943257  0.4553480150179965  0.4208513867001926
  0.7984857801065814  0.4571615301501808  0.4149995223326286
  0.1370075088099938  0.7912064940004129  0.4132515064860414
  0.4708996825309626  0.7953021252681012  0.4162089980848549
  0.7983481969758301  0.8012934298115511  0.4221976746429021
  0.1368802870341952  0.1244268870963268  0.4186533106523314
  0.4537897006076435  0.1158547050496068  0.4072315870710810
  0.7884736806910695  0.1138151446769626  0.4083447708856411
  0.1243048298697644  0.4606009758893563  0.7426603241509540
  0.4580342681287277  0.4622138705108156  0.7446487647325952
  0.8025841567282512  0.4609367546695609  0.7522319979688135
  0.1343181176972337  0.7890507089228578  0.7488134141893994
  0.4643427302611727  0.7998754290187620  0.7536022398576137
  0.7980735645439694  0.8030067886118388  0.7547853628782732
  0.1344199981503849  0.1203141806387436  0.7555131259897223
  0.4694797393087953  0.1219835576269688  0.7530617276839635
  0.7937987259843240  0.1276061812111635  0.7469316418464658
  0.2844083173874594  0.6318282038839982  0.0766537798041256
  0.6198299839312824  0.6294321666818163  0.0886853604920077
  0.9518929668064118  0.6287858353995901  0.0861381611416547
  0.2844037574161788  0.9562680845000884  0.0831365057837488
  0.6154679776944718  0.9558717955656988  0.0831758702189589
  0.9504865772628293  0.9589118736122799  0.0850931481611141
  0.2838900384996847  0.2933792567213516  0.0863791543145425
  0.6153438109526377  0.2876880547907064  0.0801297119049948
  0.9476302757124131  0.2884645865112532  0.0828243321563349
  0.2830524085154380  0.6253198619313309  0.4155469823694347
  0.6246908900367174  0.6341213066996261  0.4215010694150152
  0.9449877854355435  0.6281484896062466  0.4143623194625832
  0.2856974750692984  0.9590585431621577  0.4065024002821076
  0.6297278368717230  0.9520173523450026  0.4123187130147414
  0.9465909772067889  0.9584317814733794  0.4160470549043112
  0.2825930993612715  0.2908726734842304  0.4169387342538897
  0.6123450411392781  0.2885249792952820  0.4179302866896037
  0.9449406627425176  0.2888218705063466  0.4153085560744287
  0.2820041567606708  0.6235967375045632  0.7476727835119874
  0.6127488798421723  0.6283701429071584  0.7483726309301417
  0.9460059498039541  0.6285204069576551  0.7494455070413650
  0.2902911516167777  0.9541192907161999  0.7561030976500120
  0.6243565929429806  0.9536937954450622  0.7560801238744617
  0.9534037019741390  0.9513878862334124  0.7452875435881765
  0.2935526132670319  0.2918036356717764  0.7497988370713244
  0.6173110704168963  0.2834409656903674  0.7464116187155696
  0.9524137283285796  0.2902051883395700  0.7529919781171941
  0.2085860561116561  0.3843547560959877  0.2499079711029992
  0.5457423372323191  0.3762030823734506  0.2461828394710821
  0.8757532782472026  0.3846246926044330  0.2514709770386077
  0.2100031749131333  0.7177828942413313  0.2470843067641866
  0.5379621312207092  0.7165095968462794  0.2459998803737733
  0.8721619667109337  0.7217524937386557  0.2505122111763640
  0.2165291948837123  0.0471942331533910  0.2546832887065165
  0.5498593720519764  0.0467458635599698  0.2564649868306645
  0.8760325524380974  0.0493442275829921  0.2519969987807258
  0.2043768135218258  0.3833096403816754  0.5796022448157672
  0.5409602310371824  0.3845178005986227  0.5867186716530313
  0.8733281992771467  0.3858538896639274  0.5822110986420341
  0.2082679668971608  0.7165948172813970  0.5814261526128774
  0.5457601540356407  0.7210948920391900  0.5836742101165058
  0.8742404599020688  0.7165891849637518  0.5835051340229640
  0.2101076052743807  0.0368275538796681  0.5737976168359609
  0.5392619888271284  0.0422767400594566  0.5865378261923269
  0.8647942091451597  0.0433887092390606  0.5783361714152377
  0.2086821811594817  0.3845988734241743  0.9228629195691340
  0.5370477100254476  0.3866444829159690  0.9237042584785868
  0.8745279236004606  0.3856689549766443  0.9170981788169001
  0.2186388194593505  0.7170377922565550  0.9209148081435572
  0.5443228294219509  0.7203719172096186  0.9174639016609447
  0.8758250200194198  0.7200043735167370  0.9172108916942889
  0.2103394446549842  0.0493177799826583  0.9211043535296355
  0.5336591532653614  0.0396762546978806  0.9117250446274241
  0.8641725195896157  0.0385625359481523  0.9178410049631864
  0.0404416821050972  0.5327935653182791  0.2505734363053378
  0.3674943062079308  0.5366231535863832  0.2452590992026913
  0.7067113848380160  0.5325371787067894  0.2497453247324657
  0.0422939079565836  0.8673772109974109  0.2500487013055093
  0.3757576065078680  0.8751848944503067  0.2555679251478296
  0.7026416430851796  0.8739348891736753  0.2527934578423512
  0.0438014568053049  0.1963527299485293  0.2508516039122810
  0.3756565913194478  0.1955052801961656  0.2470639157506440
  0.7072223304432441  0.1967431209724850  0.2493285872600453
  0.0394242918304002  0.5328701023902696  0.5776423574677736
  0.3723141509969068  0.5344979389211417  0.5802634346378923
  0.7058354754588123  0.5322890066715189  0.5837607692297553
  0.0428735499489434  0.8652720486146137  0.5833886469106417
  0.3761937388434262  0.8661443470323036  0.5835126568283613
  0.7137589376321287  0.8725041333328249  0.5790209766930658
  0.0301379119572118  0.1974885463828144  0.5768338006974005
  0.3774570878349124  0.1956282787492327  0.5827445671834823
  0.7150567743612655  0.2081137700261166  0.5864699969309086
  0.0426842153361449  0.5339684861868363  0.9147640252408280
  0.3807788669363461  0.5526888055554480  0.9301854351719712
  0.7157140544714480  0.5416451612060627  0.9216544866240852
  0.0439579085540061  0.8651323916791540  0.9168234527930963
  0.3778660169697972  0.8663117449333768  0.9082565793343420
  0.7105194474301157  0.8689221304051173  0.9119672656194169
  0.0474556718992361  0.2053119042159608  0.9268867758149568
  0.3752660925464397  0.1966286397495267  0.9201468515988438
  0.7070193769234265  0.1961233582826978  0.9196557220739408

  0.00000000E+00  0.00000000E+00  0.00000000E+00
  0.00000000E+00  0.00000000E+00  0.00000000E+00
  0.00000000E+00  0.00000000E+00  0.00000000E+00
  0.00000000E+00  0.00000000E+00  0.00000000E+00
  0.00000000E+00  0.00000000E+00  0.00000000E+00
  0.00000000E+00  0.00000000E+00  0.00000000E+00
  0.00000000E+00  0.00000000E+00  0.00000000E+00
  0.00000000E+00  0.00000000E+00  0.00000000E+00
  0.00000000E+00  0.00000000E+00  0.00000000E+00
  0.00000000E+00  0.00000000E+00  0.00000000E+00
  0.00000000E+00  0.00000000E+00  0.00000000E+00
  0.00000000E+00  0.00000000E+00  0.00000000E+00
  0.00000000E+00  0.00000000E+00  0.00000000E+00
  0.00000000E+00  0.00000000E+00  0.00000000E+00
  0.00000000E+00  0.00000000E+00  0.00000000E+00
  0.00000000E+00  0.00000000E+00  0.00000000E+00
  0.00000000E+00  0.00000000E+00  0.00000000E+00
  0.00000000E+00  0.00000000E+00  0.00000000E+00
  0.00000000E+00  0.00000000E+00  0.00000000E+00
  0.00000000E+00  0.00000000E+00  0.00000000E+00
  0.00000000E+00  0.00000000E+00  0.00000000E+00
  0.00000000E+00  0.00000000E+00  0.00000000E+00
  0.00000000E+00  0.00000000E+00  0.00000000E+00
  0.00000000E+00  0.00000000E+00  0.00000000E+00
  0.00000000E+00  0.00000000E+00  0.00000000E+00
  0.00000000E+00  0.00000000E+00  0.00000000E+00
  0.00000000E+00  0.00000000E+00  0.00000000E+00
  0.00000000E+00  0.00000000E+00  0.00000000E+00
  0.00000000E+00  0.00000000E+00  0.00000000E+00
  0.00000000E+00  0.00000000E+00  0.00000000E+00
  0.00000000E+00  0.00000000E+00  0.00000000E+00
  0.00000000E+00  0.00000000E+00  0.00000000E+00
  0.00000000E+00  0.00000000E+00  0.00000000E+00
  0.00000000E+00  0.00000000E+00  0.00000000E+00
  0.00000000E+00  0.00000000E+00  0.00000000E+00
  0.00000000E+00  0.00000000E+00  0.00000000E+00
  0.00000000E+00  0.00000000E+00  0.00000000E+00
  0.00000000E+00  0.00000000E+00  0.00000000E+00
  0.00000000E+00  0.00000000E+00  0.00000000E+00
  0.00000000E+00  0.00000000E+00  0.00000000E+00
  0.00000000E+00  0.00000000E+00  0.00000000E+00
  0.00000000E+00  0.00000000E+00  0.00000000E+00
  0.00000000E+00  0.00000000E+00  0.00000000E+00
  0.00000000E+00  0.00000000E+00  0.00000000E+00
  0.00000000E+00  0.00000000E+00  0.00000000E+00
  0.00000000E+00  0.00000000E+00  0.00000000E+00
  0.00000000E+00  0.00000000E+00  0.00000000E+00
  0.00000000E+00  0.00000000E+00  0.00000000E+00
  0.00000000E+00  0.00000000E+00  0.00000000E+00
  0.00000000E+00  0.00000000E+00  0.00000000E+00
  0.00000000E+00  0.00000000E+00  0.00000000E+00
  0.00000000E+00  0.00000000E+00  0.00000000E+00
  0.00000000E+00  0.00000000E+00  0.00000000E+00
  0.00000000E+00  0.00000000E+00  0.00000000E+00
  0.00000000E+00  0.00000000E+00  0.00000000E+00
  0.00000000E+00  0.00000000E+00  0.00000000E+00
  0.00000000E+00  0.00000000E+00  0.00000000E+00
  0.00000000E+00  0.00000000E+00  0.00000000E+00
  0.00000000E+00  0.00000000E+00  0.00000000E+00
  0.00000000E+00  0.00000000E+00  0.00000000E+00
  0.00000000E+00  0.00000000E+00  0.00000000E+00
  0.00000000E+00  0.00000000E+00  0.00000000E+00
  0.00000000E+00  0.00000000E+00  0.00000000E+00
  0.00000000E+00  0.00000000E+00  0.00000000E+00
  0.00000000E+00  0.00000000E+00  0.00000000E+00
  0.00000000E+00  0.00000000E+00  0.00000000E+00
  0.00000000E+00  0.00000000E+00  0.00000000E+00
  0.00000000E+00  0.00000000E+00  0.00000000E+00
  0.00000000E+00  0.00000000E+00  0.00000000E+00
  0.00000000E+00  0.00000000E+00  0.00000000E+00
  0.00000000E+00  0.00000000E+00  0.00000000E+00
  0.00000000E+00  0.00000000E+00  0.00000000E+00
  0.00000000E+00  0.00000000E+00  0.00000000E+00
  0.00000000E+00  0.00000000E+00  0.00000000E+00
  0.00000000E+00  0.00000000E+00  0.00000000E+00
  0.00000000E+00  0.00000000E+00  0.00000000E+00
  0.00000000E+00  0.00000000E+00  0.00000000E+00
  0.00000000E+00  0.00000000E+00  0.00000000E+00
  0.00000000E+00  0.00000000E+00  0.00000000E+00
  0.00000000E+00  0.00000000E+00  0.00000000E+00
  0.00000000E+00  0.00000000E+00  0.00000000E+00
  0.00000000E+00  0.00000000E+00  0.00000000E+00
  0.00000000E+00  0.00000000E+00  0.00000000E+00
  0.00000000E+00  0.00000000E+00  0.00000000E+00
  0.00000000E+00  0.00000000E+00  0.00000000E+00
  0.00000000E+00  0.00000000E+00  0.00000000E+00
  0.00000000E+00  0.00000000E+00  0.00000000E+00
  0.00000000E+00  0.00000000E+00  0.00000000E+00
  0.00000000E+00  0.00000000E+00  0.00000000E+00
  0.00000000E+00  0.00000000E+00  0.00000000E+00
  0.00000000E+00  0.00000000E+00  0.00000000E+00
  0.00000000E+00  0.00000000E+00  0.00000000E+00
  0.00000000E+00  0.00000000E+00  0.00000000E+00
  0.00000000E+00  0.00000000E+00  0.00000000E+00
  0.00000000E+00  0.00000000E+00  0.00000000E+00
  0.00000000E+00  0.00000000E+00  0.00000000E+00
  0.00000000E+00  0.00000000E+00  0.00000000E+00
  0.00000000E+00  0.00000000E+00  0.00000000E+00
  0.00000000E+00  0.00000000E+00  0.00000000E+00
  0.00000000E+00  0.00000000E+00  0.00000000E+00
  0.00000000E+00  0.00000000E+00  0.00000000E+00
  0.00000000E+00  0.00000000E+00  0.00000000E+00
  0.00000000E+00  0.00000000E+00  0.00000000E+00
  0.00000000E+00  0.00000000E+00  0.00000000E+00
  0.00000000E+00  0.00000000E+00  0.00000000E+00
  0.00000000E+00  0.00000000E+00  0.00000000E+00
  0.00000000E+00  0.00000000E+00  0.00000000E+00
  0.00000000E+00  0.00000000E+00  0.00000000E+00
  0.00000000E+00  0.00000000E+00  0.00000000E+00
  0.00000000E+00  0.00000000E+00  0.00000000E+00
  0.00000000E+00  0.00000000E+00  0.00000000E+00
  0.00000000E+00  0.00000000E+00  0.00000000E+00
  0.00000000E+00  0.00000000E+00  0.00000000E+00
  0.00000000E+00  0.00000000E+00  0.00000000E+00
  0.00000000E+00  0.00000000E+00  0.00000000E+00
  0.00000000E+00  0.00000000E+00  0.00000000E+00
  0.00000000E+00  0.00000000E+00  0.00000000E+00
  0.00000000E+00  0.00000000E+00  0.00000000E+00
  0.00000000E+00  0.00000000E+00  0.00000000E+00
  0.00000000E+00  0.00000000E+00  0.00000000E+00
  0.00000000E+00  0.00000000E+00  0.00000000E+00
  0.00000000E+00  0.00000000E+00  0.00000000E+00
  0.00000000E+00  0.00000000E+00  0.00000000E+00
  0.00000000E+00  0.00000000E+00  0.00000000E+00
  0.00000000E+00  0.00000000E+00  0.00000000E+00
  0.00000000E+00  0.00000000E+00  0.00000000E+00
  0.00000000E+00  0.00000000E+00  0.00000000E+00
  0.00000000E+00  0.00000000E+00  0.00000000E+00
  0.00000000E+00  0.00000000E+00  0.00000000E+00
  0.00000000E+00  0.00000000E+00  0.00000000E+00
  0.00000000E+00  0.00000000E+00  0.00000000E+00
  0.00000000E+00  0.00000000E+00  0.00000000E+00
  0.00000000E+00  0.00000000E+00  0.00000000E+00
  0.00000000E+00  0.00000000E+00  0.00000000E+00
  0.00000000E+00  0.00000000E+00  0.00000000E+00
  0.00000000E+00  0.00000000E+00  0.00000000E+00
  0.00000000E+00  0.00000000E+00  0.00000000E+00
  0.00000000E+00  0.00000000E+00  0.00000000E+00
  0.00000000E+00  0.00000000E+00  0.00000000E+00
  0.00000000E+00  0.00000000E+00  0.00000000E+00
  0.00000000E+00  0.00000000E+00  0.00000000E+00
  0.00000000E+00  0.00000000E+00  0.00000000E+00
  0.00000000E+00  0.00000000E+00  0.00000000E+00
  0.00000000E+00  0.00000000E+00  0.00000000E+00
  0.00000000E+00  0.00000000E+00  0.00000000E+00
  0.00000000E+00  0.00000000E+00  0.00000000E+00
  0.00000000E+00  0.00000000E+00  0.00000000E+00
  0.00000000E+00  0.00000000E+00  0.00000000E+00
  0.00000000E+00  0.00000000E+00  0.00000000E+00
  0.00000000E+00  0.00000000E+00  0.00000000E+00
  0.00000000E+00  0.00000000E+00  0.00000000E+00
  0.00000000E+00  0.00000000E+00  0.00000000E+00
  0.00000000E+00  0.00000000E+00  0.00000000E+00
  0.00000000E+00  0.00000000E+00  0.00000000E+00
  0.00000000E+00  0.00000000E+00  0.00000000E+00
  0.00000000E+00  0.00000000E+00  0.00000000E+00
  0.00000000E+00  0.00000000E+00  0.00000000E+00
  0.00000000E+00  0.00000000E+00  0.00000000E+00
  0.00000000E+00  0.00000000E+00  0.00000000E+00
  0.00000000E+00  0.00000000E+00  0.00000000E+00
  0.00000000E+00  0.00000000E+00  0.00000000E+00
  0.00000000E+00  0.00000000E+00  0.00000000E+00
  0.00000000E+00  0.00000000E+00  0.00000000E+00
  0.00000000E+00  0.00000000E+00  0.00000000E+00
  0.00000000E+00  0.00000000E+00  0.00000000E+00
  0.00000000E+00  0.00000000E+00  0.00000000E+00
  0.00000000E+00  0.00000000E+00  0.00000000E+00
  0.00000000E+00  0.00000000E+00  0.00000000E+00
  0.00000000E+00  0.00000000E+00  0.00000000E+00
  0.00000000E+00  0.00000000E+00  0.00000000E+00
  0.00000000E+00  0.00000000E+00  0.00000000E+00
  0.00000000E+00  0.00000000E+00  0.00000000E+00
  0.00000000E+00  0.00000000E+00  0.00000000E+00
  0.00000000E+00  0.00000000E+00  0.00000000E+00
  0.00000000E+00  0.00000000E+00  0.00000000E+00
  0.00000000E+00  0.00000000E+00  0.00000000E+00
  0.00000000E+00  0.00000000E+00  0.00000000E+00
  0.00000000E+00  0.00000000E+00  0.00000000E+00
  0.00000000E+00  0.00000000E+00  0.00000000E+00
  0.00000000E+00  0.00000000E+00  0.00000000E+00
  0.00000000E+00  0.00000000E+00  0.00000000E+00
  0.00000000E+00  0.00000000E+00  0.00000000E+00
  0.00000000E+00  0.00000000E+00  0.00000000E+00
  0.00000000E+00  0.00000000E+00  0.00000000E+00
  0.00000000E+00  0.00000000E+00  0.00000000E+00
  0.00000000E+00  0.00000000E+00  0.00000000E+00
  0.00000000E+00  0.00000000E+00  0.00000000E+00
  0.00000000E+00  0.00000000E+00  0.00000000E+00
  0.00000000E+00  0.00000000E+00  0.00000000E+00
  0.00000000E+00  0.00000000E+00  0.00000000E+00
  0.00000000E+00  0.00000000E+00  0.00000000E+00
  0.00000000E+00  0.00000000E+00  0.00000000E+00
  0.00000000E+00  0.00000000E+00  0.00000000E+00
  0.00000000E+00  0.00000000E+00  0.00000000E+00
  0.00000000E+00  0.00000000E+00  0.00000000E+00
  0.00000000E+00  0.00000000E+00  0.00000000E+00
  0.00000000E+00  0.00000000E+00  0.00000000E+00
  0.00000000E+00  0.00000000E+00  0.00000000E+00
  0.00000000E+00  0.00000000E+00  0.00000000E+00
  0.00000000E+00  0.00000000E+00  0.00000000E+00
  0.00000000E+00  0.00000000E+00  0.00000000E+00
  0.00000000E+00  0.00000000E+00  0.00000000E+00
  0.00000000E+00  0.00000000E+00  0.00000000E+00
  0.00000000E+00  0.00000000E+00  0.00000000E+00
  0.00000000E+00  0.00000000E+00  0.00000000E+00
  0.00000000E+00  0.00000000E+00  0.00000000E+00
  0.00000000E+00  0.00000000E+00  0.00000000E+00
  0.00000000E+00  0.00000000E+00  0.00000000E+00
  0.00000000E+00  0.00000000E+00  0.00000000E+00
  0.00000000E+00  0.00000000E+00  0.00000000E+00
  0.00000000E+00  0.00000000E+00  0.00000000E+00
  0.00000000E+00  0.00000000E+00  0.00000000E+00
  0.00000000E+00  0.00000000E+00  0.00000000E+00
  0.00000000E+00  0.00000000E+00  0.00000000E+00
  0.00000000E+00  0.00000000E+00  0.00000000E+00
  0.00000000E+00  0.00000000E+00  0.00000000E+00
