In18 Ga36 Cu18 Ag36 Se108               
   1.0000000000000000     
    16.2541809149878702    0.0030703591469444   -7.4633726734246117
    -3.4061887098337751   15.8815039545009959   -7.4390071365569259
     0.0166253777545358    0.0138863066652832   21.4852964445477745
   In   Ga   Cu   Ag   Se
    18    36    18    36   108
Direct
  0.1729777264989991  0.5010785464564123  0.0001798454637125
  0.4904096929693722  0.4995804768837431  0.9970336439969714
  0.8340483637630953  0.5027676792761184  0.9965175015216161
  0.4995501714632837  0.1643449427400299  0.0046394045260243
  0.1656606029072663  0.4962532016607355  0.3343520279469061
  0.8337569196624202  0.4942894698470681  0.3328823952137512
  0.8402990716227237  0.8409526774722877  0.3352186775035122
  0.1674473800289036  0.8346656265316952  0.6656522778902030
  0.4951706422361326  0.8333441322695734  0.6632053598515597
  0.8359932052735815  0.8295760837697799  0.6648595294118351
  0.4938845370588254  0.1673371412890887  0.6649162825564048
  0.9153122330828225  0.4030973387360817  0.1626200719580808
  0.2554176919443591  0.7601613345595766  0.1683738356556503
  0.5758211957064177  0.7600714356175615  0.1676577432950523
  0.9204116427296753  0.4134461361614896  0.5016800689726395
  0.5765449345926115  0.7507154773774616  0.8351933328526542
  0.5851980271797146  0.0767080193976923  0.8346231840645402
  0.9200806491787574  0.0821289168356003  0.8346614336633991
  0.1674982944916010  0.8328782215324892  0.9979167898877108
  0.4879437281390508  0.8329901902550603  0.9978484341959302
  0.8376153758866280  0.8384898629902580  0.0004257307166995
  0.1721729046039187  0.1661287397225593  0.0022111673238996
  0.8347994361608002  0.1595889240157433  0.0016300826996201
  0.5008102657653950  0.4970407912331254  0.3346320868690569
  0.1655731059990657  0.8427319320808806  0.3357010615718252
  0.4998459169510667  0.8437300863616031  0.3386058856059506
  0.1645033026506937  0.1661074702548362  0.3333497117569948
  0.5003355018728541  0.1612679129916046  0.3344650005961256
  0.8369080500541912  0.1647169409703082  0.3315210996122460
  0.1655800144962569  0.5016599974466516  0.6693307903711343
  0.4939466725128057  0.4979226235146967  0.6643260813563359
  0.8385876492379722  0.4951152484167878  0.6691166357134932
  0.1678999433685036  0.1684259380906710  0.6675659878782056
  0.8357254403338601  0.1703213618058470  0.6625068542610677
  0.2501631886818672  0.4097222858559491  0.1661517830804797
  0.5837257295532794  0.4139336176435009  0.1682901295407717
  0.9212818773277007  0.7562241783853381  0.1657758382208456
  0.2536221289721041  0.0818859630755782  0.1699804292347977
  0.5812645244555483  0.0777645982227924  0.1677580579290137
  0.9183592316748204  0.0875062847662349  0.1694131828625700
  0.2406335657117538  0.4152378066589861  0.5014980003567260
  0.5875553589956510  0.4112248231820601  0.5019850347547887
  0.2439162381856832  0.7531636810097737  0.4981312620599780
  0.5795084374029358  0.7495296485375817  0.4956068153377231
  0.9235156900719232  0.7479582610969828  0.4975922990129291
  0.2442502374315012  0.0822658166405787  0.4967852628480145
  0.5856416712250621  0.0849189684192240  0.4994244289592089
  0.9232832768505190  0.0923377230673239  0.5033480028973401
  0.2444824538543955  0.4195546299729926  0.8299947385036290
  0.5793857065467449  0.4218280973776771  0.8317853761024310
  0.9214831571676356  0.4164391228953050  0.8288154251539481
  0.2484584360386535  0.7483166289785643  0.8345420685635787
  0.9213717417308231  0.7510090680375896  0.8346851962145649
  0.2506591941159755  0.0839379890635428  0.8346326450431221
  0.3324899318758128  0.3313801892287103  0.0007027753006525
  0.3269078497646092  0.6689695418517374  0.9933140725189418
  0.0039677058110428  0.3255760122229603  0.3294342325048802
  0.0011890346511620  0.0034112100622039  0.3351478160832357
  0.3345412842664501  0.0059331228418671  0.3359765465767950
  0.0028931253070681  0.3365354154959661  0.6701568662105899
  0.3218795384727713  0.0003351757325305  0.6641575016498251
  0.4148522589503258  0.9195895487886432  0.1683379847094315
  0.0850233205482951  0.2400459621109263  0.1653557528753424
  0.7514545545890883  0.2454761548471041  0.1703379042753213
  0.0841415012029074  0.5783738763363573  0.4983082931634755
  0.0866627983198782  0.9256977126547525  0.5004463018906691
  0.7544688302686211  0.2512807641626864  0.5026446929131723
  0.0851249705984785  0.5850198682468175  0.8295382497148012
  0.4097551506511365  0.5853160215384037  0.8336731499186882
  0.0896651259541841  0.9182472727316053  0.8381741763139701
  0.4083730922221420  0.9173022196217602  0.8320782751501383
  0.7532008719409546  0.9107991855534650  0.8357520635868596
  0.0041878582762465  0.3364572194250997  0.0049440412635064
  0.6530766987679186  0.3271715760781078  0.9965049877961007
  0.0005081804986204  0.6611750321773258  0.9917321243429882
  0.6643546035388823  0.6709664411462839  0.0016679890692544
  0.0066624432212166  0.0011741924813364  0.9999869636187242
  0.3294989392223044  0.9954893720671336  0.9996371778365685
  0.6706432538942053  0.9988026720693171  0.0060638363864811
  0.3313985583998686  0.3320889658589508  0.3351671078914080
  0.6644251189006454  0.3167317998653800  0.3313540786286069
  0.0025592688435978  0.6766562160163332  0.3382739624965652
  0.3337634813210215  0.6676979931920997  0.3331060639424877
  0.6621905527513334  0.6649204230450181  0.3307136479903150
  0.6719144887418125  0.0148844904333743  0.3423276881996031
  0.3363602451922389  0.3398584854884632  0.6704635768301657
  0.6689479703550631  0.3313376646095634  0.6656091656838896
  0.0065602771524027  0.6667371197729963  0.6734585176514400
  0.3275064946343420  0.6629095339536661  0.6646136105433200
  0.6710352164337650  0.6646511668993895  0.6611750655287025
  0.9985655516468341  0.9978728020154932  0.6622542208595306
  0.6677766531111970  0.9999777193918575  0.6658841332338099
  0.0873338402417829  0.5890254768175467  0.1733673580091306
  0.4171663469840183  0.5788678183354961  0.1706255176484959
  0.7535088739348623  0.5808522681368373  0.1629529935412179
  0.0859966428684729  0.9237040459625092  0.1714634706485612
  0.7550062208683528  0.9196460133291922  0.1624049227828124
  0.4160841745088604  0.2563087415387457  0.1730550888270770
  0.4145517039078612  0.5739436621748766  0.4966716369739288
  0.7476863171236303  0.5869944936000522  0.5015013993842814
  0.4089770759058098  0.9191661457892266  0.4985900209407745
  0.7564461254900721  0.9149242573157892  0.4982812323568524
  0.0804971816080808  0.2463296650933486  0.4994812181798309
  0.4143634413251078  0.2498237257313889  0.4946188739633897
  0.7469162843222961  0.5896553405275498  0.8272162109602377
  0.0863722655449521  0.2494233044711578  0.8317768294065147
  0.4097828606395311  0.2427152465025344  0.8297462227495913
  0.7518382460582131  0.2501895098333264  0.8336226098267758
  0.1371386069417966  0.4620841605128021  0.0921053908093441
  0.4572720618052486  0.4451422645630814  0.0831498025074424
  0.7906613195497627  0.4491724735906359  0.0760517187033045
  0.1246818539861181  0.7961779494683583  0.0775546993030716
  0.4410967238527164  0.7963513594714087  0.0772953710655386
  0.8012815656464056  0.7918811095100224  0.0793175512426245
  0.1379783823155449  0.1294298632038817  0.0893487557392518
  0.4619654566485281  0.1223086745553204  0.0929966409835643
  0.7973338152401297  0.1304391525933681  0.0901916587132732
  0.1175666718760908  0.4521807788180112  0.4186523801843620
  0.4702303391269425  0.4512976861789895  0.4168723376166881
  0.7882203782294965  0.4527803162459136  0.4172837213800165
  0.1305380662993301  0.8067237175512076  0.4218796800617852
  0.4636149594326398  0.7962008405914318  0.4173167768060964
  0.8016318916998486  0.7846966647759643  0.4161919637859199
  0.1237222082644536  0.1189248597115693  0.4111146268735126
  0.4613689750847811  0.1191523078259067  0.4147794470953841
  0.8050501726891497  0.1388276677651135  0.4240832305658699
  0.1202760512666075  0.4596126535524405  0.7483416718085536
  0.4613964514430293  0.4709295234135524  0.7562298727671219
  0.8008652766922708  0.4591052654011918  0.7519540524056296
  0.1322452018385221  0.7992536058432407  0.7604782037575575
  0.4493366885716270  0.7992528965501791  0.7525491206635522
  0.7994109503656759  0.7943625969872912  0.7585798797308101
  0.1341419513405100  0.1218537283848207  0.7477944895588067
  0.4503603058124028  0.1111412854705733  0.7435122536646475
  0.7981389342147054  0.1273512732155595  0.7427524557269010
  0.2996942971342520  0.6322501517732917  0.0809267395254736
  0.6190866469216658  0.6279325477104507  0.0863674134940950
  0.9605678363092736  0.6345449620397474  0.0867569650579725
  0.2890674788410053  0.9549817884983369  0.0887122916945771
  0.6106288519498548  0.9521609432996385  0.0819854081853322
  0.9529343828634609  0.9642564289639708  0.0852157298072740
  0.2880661967965921  0.2925743206830091  0.0787680588176585
  0.6315556475330411  0.2919340834763204  0.0962296310712105
  0.9623666450165018  0.2732326291585281  0.0809341045658556
  0.2878017228640388  0.6323553686758672  0.4219077542615324
  0.6141093354983695  0.6240628516919884  0.4152966516884504
  0.9652012421100764  0.6235486509725590  0.4224524941064729
  0.2841361117735062  0.9657872561226100  0.4109657160922779
  0.6221309677277134  0.9615321726378525  0.4196657317345966
  0.9693620374220515  0.9732796849502918  0.4239803884317723
  0.2769988156952365  0.2935019479018024  0.4180272830311154
  0.6241601419139968  0.2823958772778568  0.4232239396871265
  0.9557379733544664  0.2857802099944280  0.4052624844455508
  0.2864716008780732  0.6230736967177606  0.7544190390099175
  0.6092993223044942  0.6215514739212225  0.7388347323159223
  0.9568228399776189  0.6219027514299000  0.7544515128519933
  0.2969573609081095  0.9664222591961575  0.7546635491156124
  0.6353486991833464  0.9504276307612329  0.7535438554088856
  0.9697132346787711  0.9540764420435508  0.7544507283685817
  0.2821514925413524  0.2950681719202706  0.7496276495811003
  0.6197420715762334  0.2995668468203050  0.7544087978785328
  0.9566247847197999  0.2931466175655899  0.7450530893973379
  0.2008989232137068  0.3648994343440748  0.2398570636207822
  0.5469565807845882  0.3826383779431737  0.2549751437058632
  0.8763510057155344  0.3592819476148890  0.2508334214335122
  0.2086682089664649  0.7244791604094161  0.2567883524485026
  0.5353807257861334  0.7211601029779899  0.2567163174703921
  0.8774201314609726  0.7133982577981399  0.2421884531709679
  0.2171852342288645  0.0511225115196936  0.2578732319126757
  0.5350542685163830  0.0406611914254640  0.2471359392215504
  0.8854026601909268  0.0476889744697289  0.2547648060360430
  0.2041665819919771  0.3822096367925525  0.5863938409598362
  0.5401794449478672  0.3814066341288580  0.5842202845501490
  0.8773931358065639  0.3701617136637196  0.5891065776281792
  0.1999737992706372  0.7021572052930267  0.5713030279111848
  0.5400004105049376  0.7080430537903339  0.5750123669206033
  0.8834534248722008  0.7073176891651158  0.5778424905559874
  0.2073049320701017  0.0455511406601374  0.5834807161468802
  0.5431750612654085  0.0458734845034598  0.5786167324687028
  0.8769766046317642  0.0520757485043788  0.5806363534362333
  0.2208276017549835  0.3750766190941306  0.9163386433958891
  0.5357615035296774  0.3763794683425061  0.9073776920817735
  0.8833243909223683  0.3790928845609045  0.9113323723283671
  0.2048716098649379  0.7076057656038799  0.9144637240277120
  0.5266545589048732  0.7086672411371708  0.9188478678815812
  0.8768427532300436  0.7195947011774848  0.9166988819844661
  0.2039424337468034  0.0432107809251789  0.9134462652888118
  0.5334474365876503  0.0306827095573823  0.9146538433328715
  0.8666941550798626  0.0361537770867599  0.9150890924338739
  0.0364250976883724  0.5384691045105541  0.2503121124908390
  0.3729517695108413  0.5288764011842844  0.2533070006923381
  0.7030577854009863  0.5342024705391282  0.2439144542889977
  0.0393937530118436  0.8800230470418953  0.2560790736006169
  0.3834464519431506  0.8913999506211852  0.2590797498423925
  0.7096375357419404  0.8837291935837612  0.2517868483008172
  0.0445354761285373  0.2062258111217048  0.2485089506326403
  0.3774942564172790  0.1995021276738811  0.2542122824113591
  0.7098582034555818  0.1924429444552018  0.2429359780436542
  0.0512322596895487  0.5424905622334890  0.5841817362621242
  0.3680494394900791  0.5294739390889163  0.5801137075017593
  0.7134699200152141  0.5273073963016017  0.5839876010818230
  0.0400596904678352  0.8720753754043784  0.5705160835080179
  0.3605080487303454  0.8786653420273183  0.5835682668215370
  0.7032827517023463  0.8657688929748844  0.5761597196511730
  0.0438022780897498  0.2129234503932338  0.5933343056995710
  0.3624743891330269  0.2037134747733873  0.5757784075276504
  0.7112706709024437  0.2033314708523761  0.5770019568317224
  0.0434578375355628  0.5355505952740032  0.9045093567695872
  0.3626064686667121  0.5458968786031093  0.9100113034392692
  0.7005052681159043  0.5400550793307275  0.9096644871247364
  0.0471692106715693  0.8695116312146425  0.9119168046291435
  0.3706009459174950  0.8681563492209960  0.9090062375054515
  0.7146438172887954  0.8730919643407091  0.9167792774193160
  0.0523922648787760  0.2070154803818411  0.9232728822848202
  0.3674807036204157  0.2083020224929228  0.9209071775116584
  0.7162735911636346  0.2044064632860199  0.9231880278398990

  0.00000000E+00  0.00000000E+00  0.00000000E+00
  0.00000000E+00  0.00000000E+00  0.00000000E+00
  0.00000000E+00  0.00000000E+00  0.00000000E+00
  0.00000000E+00  0.00000000E+00  0.00000000E+00
  0.00000000E+00  0.00000000E+00  0.00000000E+00
  0.00000000E+00  0.00000000E+00  0.00000000E+00
  0.00000000E+00  0.00000000E+00  0.00000000E+00
  0.00000000E+00  0.00000000E+00  0.00000000E+00
  0.00000000E+00  0.00000000E+00  0.00000000E+00
  0.00000000E+00  0.00000000E+00  0.00000000E+00
  0.00000000E+00  0.00000000E+00  0.00000000E+00
  0.00000000E+00  0.00000000E+00  0.00000000E+00
  0.00000000E+00  0.00000000E+00  0.00000000E+00
  0.00000000E+00  0.00000000E+00  0.00000000E+00
  0.00000000E+00  0.00000000E+00  0.00000000E+00
  0.00000000E+00  0.00000000E+00  0.00000000E+00
  0.00000000E+00  0.00000000E+00  0.00000000E+00
  0.00000000E+00  0.00000000E+00  0.00000000E+00
  0.00000000E+00  0.00000000E+00  0.00000000E+00
  0.00000000E+00  0.00000000E+00  0.00000000E+00
  0.00000000E+00  0.00000000E+00  0.00000000E+00
  0.00000000E+00  0.00000000E+00  0.00000000E+00
  0.00000000E+00  0.00000000E+00  0.00000000E+00
  0.00000000E+00  0.00000000E+00  0.00000000E+00
  0.00000000E+00  0.00000000E+00  0.00000000E+00
  0.00000000E+00  0.00000000E+00  0.00000000E+00
  0.00000000E+00  0.00000000E+00  0.00000000E+00
  0.00000000E+00  0.00000000E+00  0.00000000E+00
  0.00000000E+00  0.00000000E+00  0.00000000E+00
  0.00000000E+00  0.00000000E+00  0.00000000E+00
  0.00000000E+00  0.00000000E+00  0.00000000E+00
  0.00000000E+00  0.00000000E+00  0.00000000E+00
  0.00000000E+00  0.00000000E+00  0.00000000E+00
  0.00000000E+00  0.00000000E+00  0.00000000E+00
  0.00000000E+00  0.00000000E+00  0.00000000E+00
  0.00000000E+00  0.00000000E+00  0.00000000E+00
  0.00000000E+00  0.00000000E+00  0.00000000E+00
  0.00000000E+00  0.00000000E+00  0.00000000E+00
  0.00000000E+00  0.00000000E+00  0.00000000E+00
  0.00000000E+00  0.00000000E+00  0.00000000E+00
  0.00000000E+00  0.00000000E+00  0.00000000E+00
  0.00000000E+00  0.00000000E+00  0.00000000E+00
  0.00000000E+00  0.00000000E+00  0.00000000E+00
  0.00000000E+00  0.00000000E+00  0.00000000E+00
  0.00000000E+00  0.00000000E+00  0.00000000E+00
  0.00000000E+00  0.00000000E+00  0.00000000E+00
  0.00000000E+00  0.00000000E+00  0.00000000E+00
  0.00000000E+00  0.00000000E+00  0.00000000E+00
  0.00000000E+00  0.00000000E+00  0.00000000E+00
  0.00000000E+00  0.00000000E+00  0.00000000E+00
  0.00000000E+00  0.00000000E+00  0.00000000E+00
  0.00000000E+00  0.00000000E+00  0.00000000E+00
  0.00000000E+00  0.00000000E+00  0.00000000E+00
  0.00000000E+00  0.00000000E+00  0.00000000E+00
  0.00000000E+00  0.00000000E+00  0.00000000E+00
  0.00000000E+00  0.00000000E+00  0.00000000E+00
  0.00000000E+00  0.00000000E+00  0.00000000E+00
  0.00000000E+00  0.00000000E+00  0.00000000E+00
  0.00000000E+00  0.00000000E+00  0.00000000E+00
  0.00000000E+00  0.00000000E+00  0.00000000E+00
  0.00000000E+00  0.00000000E+00  0.00000000E+00
  0.00000000E+00  0.00000000E+00  0.00000000E+00
  0.00000000E+00  0.00000000E+00  0.00000000E+00
  0.00000000E+00  0.00000000E+00  0.00000000E+00
  0.00000000E+00  0.00000000E+00  0.00000000E+00
  0.00000000E+00  0.00000000E+00  0.00000000E+00
  0.00000000E+00  0.00000000E+00  0.00000000E+00
  0.00000000E+00  0.00000000E+00  0.00000000E+00
  0.00000000E+00  0.00000000E+00  0.00000000E+00
  0.00000000E+00  0.00000000E+00  0.00000000E+00
  0.00000000E+00  0.00000000E+00  0.00000000E+00
  0.00000000E+00  0.00000000E+00  0.00000000E+00
  0.00000000E+00  0.00000000E+00  0.00000000E+00
  0.00000000E+00  0.00000000E+00  0.00000000E+00
  0.00000000E+00  0.00000000E+00  0.00000000E+00
  0.00000000E+00  0.00000000E+00  0.00000000E+00
  0.00000000E+00  0.00000000E+00  0.00000000E+00
  0.00000000E+00  0.00000000E+00  0.00000000E+00
  0.00000000E+00  0.00000000E+00  0.00000000E+00
  0.00000000E+00  0.00000000E+00  0.00000000E+00
  0.00000000E+00  0.00000000E+00  0.00000000E+00
  0.00000000E+00  0.00000000E+00  0.00000000E+00
  0.00000000E+00  0.00000000E+00  0.00000000E+00
  0.00000000E+00  0.00000000E+00  0.00000000E+00
  0.00000000E+00  0.00000000E+00  0.00000000E+00
  0.00000000E+00  0.00000000E+00  0.00000000E+00
  0.00000000E+00  0.00000000E+00  0.00000000E+00
  0.00000000E+00  0.00000000E+00  0.00000000E+00
  0.00000000E+00  0.00000000E+00  0.00000000E+00
  0.00000000E+00  0.00000000E+00  0.00000000E+00
  0.00000000E+00  0.00000000E+00  0.00000000E+00
  0.00000000E+00  0.00000000E+00  0.00000000E+00
  0.00000000E+00  0.00000000E+00  0.00000000E+00
  0.00000000E+00  0.00000000E+00  0.00000000E+00
  0.00000000E+00  0.00000000E+00  0.00000000E+00
  0.00000000E+00  0.00000000E+00  0.00000000E+00
  0.00000000E+00  0.00000000E+00  0.00000000E+00
  0.00000000E+00  0.00000000E+00  0.00000000E+00
  0.00000000E+00  0.00000000E+00  0.00000000E+00
  0.00000000E+00  0.00000000E+00  0.00000000E+00
  0.00000000E+00  0.00000000E+00  0.00000000E+00
  0.00000000E+00  0.00000000E+00  0.00000000E+00
  0.00000000E+00  0.00000000E+00  0.00000000E+00
  0.00000000E+00  0.00000000E+00  0.00000000E+00
  0.00000000E+00  0.00000000E+00  0.00000000E+00
  0.00000000E+00  0.00000000E+00  0.00000000E+00
  0.00000000E+00  0.00000000E+00  0.00000000E+00
  0.00000000E+00  0.00000000E+00  0.00000000E+00
  0.00000000E+00  0.00000000E+00  0.00000000E+00
  0.00000000E+00  0.00000000E+00  0.00000000E+00
  0.00000000E+00  0.00000000E+00  0.00000000E+00
  0.00000000E+00  0.00000000E+00  0.00000000E+00
  0.00000000E+00  0.00000000E+00  0.00000000E+00
  0.00000000E+00  0.00000000E+00  0.00000000E+00
  0.00000000E+00  0.00000000E+00  0.00000000E+00
  0.00000000E+00  0.00000000E+00  0.00000000E+00
  0.00000000E+00  0.00000000E+00  0.00000000E+00
  0.00000000E+00  0.00000000E+00  0.00000000E+00
  0.00000000E+00  0.00000000E+00  0.00000000E+00
  0.00000000E+00  0.00000000E+00  0.00000000E+00
  0.00000000E+00  0.00000000E+00  0.00000000E+00
  0.00000000E+00  0.00000000E+00  0.00000000E+00
  0.00000000E+00  0.00000000E+00  0.00000000E+00
  0.00000000E+00  0.00000000E+00  0.00000000E+00
  0.00000000E+00  0.00000000E+00  0.00000000E+00
  0.00000000E+00  0.00000000E+00  0.00000000E+00
  0.00000000E+00  0.00000000E+00  0.00000000E+00
  0.00000000E+00  0.00000000E+00  0.00000000E+00
  0.00000000E+00  0.00000000E+00  0.00000000E+00
  0.00000000E+00  0.00000000E+00  0.00000000E+00
  0.00000000E+00  0.00000000E+00  0.00000000E+00
  0.00000000E+00  0.00000000E+00  0.00000000E+00
  0.00000000E+00  0.00000000E+00  0.00000000E+00
  0.00000000E+00  0.00000000E+00  0.00000000E+00
  0.00000000E+00  0.00000000E+00  0.00000000E+00
  0.00000000E+00  0.00000000E+00  0.00000000E+00
  0.00000000E+00  0.00000000E+00  0.00000000E+00
  0.00000000E+00  0.00000000E+00  0.00000000E+00
  0.00000000E+00  0.00000000E+00  0.00000000E+00
  0.00000000E+00  0.00000000E+00  0.00000000E+00
  0.00000000E+00  0.00000000E+00  0.00000000E+00
  0.00000000E+00  0.00000000E+00  0.00000000E+00
  0.00000000E+00  0.00000000E+00  0.00000000E+00
  0.00000000E+00  0.00000000E+00  0.00000000E+00
  0.00000000E+00  0.00000000E+00  0.00000000E+00
  0.00000000E+00  0.00000000E+00  0.00000000E+00
  0.00000000E+00  0.00000000E+00  0.00000000E+00
  0.00000000E+00  0.00000000E+00  0.00000000E+00
  0.00000000E+00  0.00000000E+00  0.00000000E+00
  0.00000000E+00  0.00000000E+00  0.00000000E+00
  0.00000000E+00  0.00000000E+00  0.00000000E+00
  0.00000000E+00  0.00000000E+00  0.00000000E+00
  0.00000000E+00  0.00000000E+00  0.00000000E+00
  0.00000000E+00  0.00000000E+00  0.00000000E+00
  0.00000000E+00  0.00000000E+00  0.00000000E+00
  0.00000000E+00  0.00000000E+00  0.00000000E+00
  0.00000000E+00  0.00000000E+00  0.00000000E+00
  0.00000000E+00  0.00000000E+00  0.00000000E+00
  0.00000000E+00  0.00000000E+00  0.00000000E+00
  0.00000000E+00  0.00000000E+00  0.00000000E+00
  0.00000000E+00  0.00000000E+00  0.00000000E+00
  0.00000000E+00  0.00000000E+00  0.00000000E+00
  0.00000000E+00  0.00000000E+00  0.00000000E+00
  0.00000000E+00  0.00000000E+00  0.00000000E+00
  0.00000000E+00  0.00000000E+00  0.00000000E+00
  0.00000000E+00  0.00000000E+00  0.00000000E+00
  0.00000000E+00  0.00000000E+00  0.00000000E+00
  0.00000000E+00  0.00000000E+00  0.00000000E+00
  0.00000000E+00  0.00000000E+00  0.00000000E+00
  0.00000000E+00  0.00000000E+00  0.00000000E+00
  0.00000000E+00  0.00000000E+00  0.00000000E+00
  0.00000000E+00  0.00000000E+00  0.00000000E+00
  0.00000000E+00  0.00000000E+00  0.00000000E+00
  0.00000000E+00  0.00000000E+00  0.00000000E+00
  0.00000000E+00  0.00000000E+00  0.00000000E+00
  0.00000000E+00  0.00000000E+00  0.00000000E+00
  0.00000000E+00  0.00000000E+00  0.00000000E+00
  0.00000000E+00  0.00000000E+00  0.00000000E+00
  0.00000000E+00  0.00000000E+00  0.00000000E+00
  0.00000000E+00  0.00000000E+00  0.00000000E+00
  0.00000000E+00  0.00000000E+00  0.00000000E+00
  0.00000000E+00  0.00000000E+00  0.00000000E+00
  0.00000000E+00  0.00000000E+00  0.00000000E+00
  0.00000000E+00  0.00000000E+00  0.00000000E+00
  0.00000000E+00  0.00000000E+00  0.00000000E+00
  0.00000000E+00  0.00000000E+00  0.00000000E+00
  0.00000000E+00  0.00000000E+00  0.00000000E+00
  0.00000000E+00  0.00000000E+00  0.00000000E+00
  0.00000000E+00  0.00000000E+00  0.00000000E+00
  0.00000000E+00  0.00000000E+00  0.00000000E+00
  0.00000000E+00  0.00000000E+00  0.00000000E+00
  0.00000000E+00  0.00000000E+00  0.00000000E+00
  0.00000000E+00  0.00000000E+00  0.00000000E+00
  0.00000000E+00  0.00000000E+00  0.00000000E+00
  0.00000000E+00  0.00000000E+00  0.00000000E+00
  0.00000000E+00  0.00000000E+00  0.00000000E+00
  0.00000000E+00  0.00000000E+00  0.00000000E+00
  0.00000000E+00  0.00000000E+00  0.00000000E+00
  0.00000000E+00  0.00000000E+00  0.00000000E+00
  0.00000000E+00  0.00000000E+00  0.00000000E+00
  0.00000000E+00  0.00000000E+00  0.00000000E+00
  0.00000000E+00  0.00000000E+00  0.00000000E+00
  0.00000000E+00  0.00000000E+00  0.00000000E+00
  0.00000000E+00  0.00000000E+00  0.00000000E+00
  0.00000000E+00  0.00000000E+00  0.00000000E+00
  0.00000000E+00  0.00000000E+00  0.00000000E+00
  0.00000000E+00  0.00000000E+00  0.00000000E+00
  0.00000000E+00  0.00000000E+00  0.00000000E+00
  0.00000000E+00  0.00000000E+00  0.00000000E+00
  0.00000000E+00  0.00000000E+00  0.00000000E+00
  0.00000000E+00  0.00000000E+00  0.00000000E+00
  0.00000000E+00  0.00000000E+00  0.00000000E+00
  0.00000000E+00  0.00000000E+00  0.00000000E+00
  0.00000000E+00  0.00000000E+00  0.00000000E+00
  0.00000000E+00  0.00000000E+00  0.00000000E+00
  0.00000000E+00  0.00000000E+00  0.00000000E+00
