In6 Ga48 Cu18 Ag36 Se108                
   1.0000000000000000     
    16.1227418665677149    0.0056178846982061   -7.4168896563874007
    -3.4309715262546847   15.7748705771221438   -7.4556288249805425
     0.0072761216246828    0.0089401764400502   21.2499398856859827
   In   Ga   Cu   Ag   Se
     6    48    18    36   108
Direct
  0.1686247726677266  0.1691762338390745  0.3321501960707707
  0.1668526456390396  0.5000454142429760  0.6674458506218031
  0.5016133660532205  0.8368439929547336  0.6692014470982173
  0.5022511641508274  0.1590238185767063  0.6651777414867510
  0.5790519473425775  0.7433256312948870  0.4936380350525695
  0.5904616699667784  0.4175305480189593  0.8348420587941945
  0.1635695389373026  0.4949168242534725  0.0003145322474865
  0.5040026367144321  0.4966494745674979  0.0037326092656897
  0.8361102825363886  0.4978395513244109  0.0033927989920528
  0.1684924124452749  0.8410109538583512  0.0005595211296097
  0.4972647442904474  0.8389616941178701  0.0027914841760861
  0.8366968725717641  0.8360489382653782  0.9999781645854640
  0.1642331936589443  0.1629628918424757  0.9995317760899027
  0.4987561522356430  0.1678252901197652  0.0011896277246137
  0.8378574416567801  0.1694074964616590  0.0004318459078689
  0.1695324866708532  0.4946073657245407  0.3328493714821050
  0.4961660551806446  0.4896599183148922  0.3282011917460395
  0.8309717536592274  0.4998601630976651  0.3317667967979858
  0.1675674080129141  0.8323401922736906  0.3316459790268595
  0.4957402565007456  0.8354331945550513  0.3285969159689586
  0.8300030197880304  0.8301745940465324  0.3318497429247884
  0.4972195490890741  0.1688050692613103  0.3320921311078564
  0.8328266736626517  0.1685421427613463  0.3335867008364204
  0.5033892057222431  0.5042104906844500  0.6677433412678155
  0.8302123394227792  0.5013135592508107  0.6669032259820398
  0.1676024336643636  0.8344691832884621  0.6642881725930962
  0.8310274076782491  0.8338413929204762  0.6680419195425600
  0.1688728938338429  0.1652325314046692  0.6670646342797184
  0.8308205148679875  0.1692395738079213  0.6675950695037187
  0.2482094772767098  0.4067617547287057  0.1652027913224074
  0.5829843825643337  0.4134241473876727  0.1645154090784260
  0.9179869689747804  0.4154478569827518  0.1668173558034738
  0.2501233633044109  0.7508406682487703  0.1620472303614520
  0.5817774132052946  0.7502569142123932  0.1667449225008184
  0.9151729667792949  0.7470445245756991  0.1662513392211977
  0.2516204456313318  0.0867625512660624  0.1647081283592229
  0.5772799903169528  0.0852951369673534  0.1663540953425979
  0.9169842662088357  0.0872975559672540  0.1629757943841739
  0.2551365933515086  0.4172026454488460  0.4984232281188170
  0.5830582607163777  0.4176107106418812  0.4986666875560033
  0.9105205028536858  0.4152505672827047  0.4986955384241085
  0.2529975680906986  0.7502606547098765  0.4971915557326483
  0.9116299041643856  0.7471030827012299  0.4992742146634157
  0.2491349262660805  0.0824425977617693  0.5009538215877640
  0.5827349082979723  0.0802099150037776  0.4945040851223510
  0.9144416695733071  0.0868284110093427  0.4995794738540766
  0.2518295828693766  0.4151447048798786  0.8373395540582891
  0.9121454693023736  0.4158782345297212  0.8360944009050684
  0.2512547043545510  0.7572189130868523  0.8360652745384414
  0.5894428314798787  0.7528657596262036  0.8386213141658558
  0.9139813463752660  0.7537668076782325  0.8353971984334052
  0.2508187869736815  0.0818225321468091  0.8327511315263436
  0.5897985331411988  0.0878764017794751  0.8405000816572326
  0.9143291791668844  0.0828390458848673  0.8344192751059509
  0.9980512785743016  0.3294588206924018  0.9998455701032540
  0.6744791642947874  0.3339666096457492  0.0048218108244811
  0.9992479266348013  0.0048055497296673  0.0008330616321288
  0.3343358008748254  0.0073675976011316  0.0038175492003703
  0.3342600907159863  0.3348625088346679  0.3286993330996921
  0.3328322458556912  0.9953801659755541  0.6637264722757479
  0.7489008144339877  0.5788824276853148  0.1640617218173261
  0.4131432096091601  0.9188441943374457  0.1606899680266949
  0.0840515208561570  0.2492961467115933  0.1608381418787133
  0.4148600123645849  0.2445983138654029  0.1655996844539729
  0.4137965933898826  0.5734360341031248  0.4943071376162251
  0.7485529225214336  0.5787568548033306  0.4978893092467587
  0.4106110256835720  0.9144996919999571  0.4935986745795873
  0.0802409889294253  0.2487308353097362  0.4986913849426458
  0.7485022453054242  0.2509850303555936  0.5003316388005743
  0.7538223638160346  0.5868504471127665  0.8357320679427716
  0.7578556083241281  0.9211383327807710  0.8396539212052687
  0.7588479669513433  0.2519665614897448  0.8434728421953039
  0.3322539666501285  0.3295204047037572  0.0036282807362369
  0.9974590470641331  0.6690180670382944  0.0023674163707668
  0.3328863746573063  0.6667869260948649  0.9975946137262994
  0.6707390235694177  0.6664413766914308  0.0063882065851999
  0.6705806970619932  0.9973404608705607  0.0018654369696449
  0.0013655970347557  0.3301519510223727  0.3362666537400045
  0.6625152669548129  0.3350969238059776  0.3350054877185471
  0.9946611557522189  0.6646340033657623  0.3285146314546026
  0.3301414067311157  0.6625762273734992  0.3319246990076081
  0.6659639192402409  0.6611786830171908  0.3298629343443409
  0.9997291482787105  0.0004531144758815  0.3340388398943546
  0.3364654254508608  0.9931813728966574  0.3319601050123921
  0.6653119419635587  0.0060877619333297  0.3292464113455367
  0.9983516216278545  0.3298372028977852  0.6606465439931810
  0.3265199415633120  0.3320498549928459  0.6629438526612788
  0.6734437664245831  0.3322142108939801  0.6678664813399209
  0.9953887007862505  0.6735866867960851  0.6661055513476413
  0.3345730071424242  0.6655880989584944  0.6658943891204032
  0.6679537860374509  0.6667238073928132  0.6694649562688681
  0.0012586114674988  0.9985183001484970  0.6656678217829892
  0.6670124388922929  0.0082427247493655  0.6722873272043302
  0.0924149859308514  0.5777452527228633  0.1675027270920211
  0.4133407493420478  0.5834943151000189  0.1674619475373120
  0.0786415165785144  0.9154241610560589  0.1641650595784867
  0.7521308683258638  0.9209517401011169  0.1688269174858590
  0.7473146864745388  0.2525178196009179  0.1674735594819765
  0.0841239031384973  0.5850013848158184  0.4998420972763853
  0.0842540882951539  0.9173284035592317  0.4982399774593986
  0.7499958051936488  0.9205790081250953  0.5024025522271387
  0.4213949481319119  0.2556275137636277  0.5016419342364955
  0.0785123558425127  0.5863316168549915  0.8377881510076080
  0.4262984310645948  0.5874331657457645  0.8402752018579065
  0.0824830835987171  0.9173955755521206  0.8363647776117844
  0.4141221751931994  0.9230319138828662  0.8373821810156770
  0.0762197698222451  0.2494096761996545  0.8329468914070262
  0.4228628083432966  0.2499691115203575  0.8340393941792925
  0.1267037016795456  0.4427880710623882  0.0774605657731371
  0.4649709297796036  0.4570629691819903  0.0850379098843064
  0.7935735642274011  0.4578157228425539  0.0855088206794363
  0.1331563774202849  0.7932175574376714  0.0801688418651025
  0.4633394827125628  0.7987309063978856  0.0876869492429719
  0.8034451080435758  0.7958535509484435  0.0847998073646252
  0.1234876223759045  0.1233415294102045  0.0819464042838618
  0.4570360284010064  0.1274487125916153  0.0835351111864995
  0.7989983804245782  0.1290118222129024  0.0819407895863122
  0.1346768442627209  0.4577430430780893  0.4176782419097407
  0.4571822874861340  0.4539683523618336  0.4136796028347121
  0.7944593812902525  0.4630735055463759  0.4178466687850815
  0.1320766103823985  0.7874664403622376  0.4123405882442484
  0.4546186291557177  0.7983569735445712  0.4114300502390620
  0.7963596457499094  0.7913562019018414  0.4167560296908448
  0.1299075217979464  0.1306727106277918  0.4245882471098668
  0.4646587915349727  0.1250476851956606  0.4151679428587087
  0.7965899452721388  0.1347012266272500  0.4209639107463303
  0.1317898135906290  0.4574260145437492  0.7582488900186348
  0.4610137920445823  0.4578201866725209  0.7440556273830339
  0.7979402655466146  0.4684768040111251  0.7574121261876172
  0.1334448924112976  0.7945053758126832  0.7487028068995585
  0.4675773206240166  0.7932311412211845  0.7599919373808177
  0.7959347881888093  0.8006544789780889  0.7560749918812633
  0.1331212136552509  0.1264219479398676  0.7515605074296516
  0.4603539246618809  0.1108343733001362  0.7500852802608549
  0.7991608366209064  0.1353991405624058  0.7578767551745713
  0.2796551776230771  0.6212063273595305  0.0796923583206990
  0.6228505846657342  0.6222907586937154  0.0899149036191460
  0.9544493087298136  0.6225158101330521  0.0881494536664320
  0.2926367116734951  0.9634002580264465  0.0821427721221539
  0.6155569309607003  0.9623013779324694  0.0858061651627366
  0.9530844613430247  0.9633844338235491  0.0781172753594959
  0.2886457792968216  0.2823483087079879  0.0877123930440362
  0.6178063091148971  0.2924244726964034  0.0772311069645326
  0.9604380039755327  0.2928487119721268  0.0836566072161133
  0.2911911135653540  0.6191251322682874  0.4203979175547943
  0.6218217219971862  0.6077669657841085  0.4110464319858522
  0.9477034334503003  0.6248664448328611  0.4156193427905563
  0.2867763461203410  0.9568460116688726  0.4183664731935437
  0.6168071947117610  0.9567399636904668  0.4110588939964543
  0.9460615854948955  0.9578971537901424  0.4158465693255167
  0.2957998168197520  0.3014634871646749  0.4134373993580525
  0.6220193068960640  0.2888780659952630  0.4217694108682579
  0.9549283445885450  0.2905215131754417  0.4226219804738918
  0.2926957965139181  0.6342328093164511  0.7588193878365033
  0.6267653961565074  0.6248330306408789  0.7593350695796062
  0.9476267704236463  0.6285448947547394  0.7503112962118550
  0.2850566856252854  0.9604278957733783  0.7431133247367541
  0.6355425388636320  0.9653223131493078  0.7651735024217317
  0.9491623689341893  0.9590362049045780  0.7498271521395026
  0.2859104211085040  0.2914374979911827  0.7519908698433824
  0.6373031852414428  0.2841620962816691  0.7559656198099489
  0.9462010106589531  0.2949032663245248  0.7484564823196251
  0.2073141859812182  0.3695727024591520  0.2483935846061627
  0.5319646753745531  0.3695706157635570  0.2399354476939024
  0.8772006441843629  0.3830408319165741  0.2521285726541862
  0.2100906253045238  0.7177871221550092  0.2468522918014671
  0.5403531743059347  0.7159663211375431  0.2503665943167022
  0.8635330237619954  0.7075143171051863  0.2425822169106482
  0.2129847585086182  0.0428104302442378  0.2440550351184854
  0.5294967176067118  0.0449282897545160  0.2435158884533948
  0.8780258783493409  0.0547867055015203  0.2495753921016828
  0.2004500026033611  0.3705950862788683  0.5692739999558185
  0.5487345612932089  0.3877400384250151  0.5876963596915843
  0.8650444674091418  0.3770130171612109  0.5795631871789695
  0.2115699382491272  0.7182126772057345  0.5821639532290561
  0.5304178985384880  0.6979021941274226  0.5764611832362263
  0.8608714371396928  0.7093236790488362  0.5770051573319961
  0.2171494831001297  0.0467848408393365  0.5892647670199338
  0.5357708010797637  0.0307851052532939  0.5678722025137972
  0.8766879576957010  0.0540002715290484  0.5858823138769722
  0.2080895266935201  0.3795031476282134  0.9185787364991924
  0.5536672307580872  0.3791633635243130  0.9280349675828532
  0.8776610572279964  0.3742122270253319  0.9215799884978040
  0.2054603927117640  0.7201908501603498  0.9156762987892364
  0.5481696517805403  0.7244013549965587  0.9254366415320590
  0.8693130304091312  0.7118755982464293  0.9135609227550887
  0.2144300960170753  0.0469064529629222  0.9203062859210576
  0.5455383122219288  0.0523397564547139  0.9218743187706835
  0.8766407150447151  0.0437517416490749  0.9187725025272542
  0.0449556152406743  0.5316728818226863  0.2511318401413334
  0.3711740600874904  0.5271396913792259  0.2479674810376480
  0.7089814162264645  0.5314611048801154  0.2420334608141843
  0.0402581049749600  0.8656151454147150  0.2499918244609276
  0.3760340514512350  0.8679892617507221  0.2376392701776311
  0.7070979634649888  0.8674254928587786  0.2495618680697973
  0.0392206853746018  0.2064531090333119  0.2380134413129582
  0.3749057902415274  0.2114720772582928  0.2500320067656361
  0.7052984835339160  0.2009469289321117  0.2503675515743282
  0.0315061696461783  0.5357295212280704  0.5794195458923994
  0.3796733637376590  0.5372071019751417  0.5799555124565643
  0.7092440676872158  0.5367177205498379  0.5779197976405115
  0.0386308970693392  0.8630974059947008  0.5799276878269595
  0.3709005737455016  0.8781159961871836  0.5771412771638964
  0.7096701468883424  0.8729381176406363  0.5883137145312247
  0.0459948956506935  0.1999167912736297  0.5780408016795562
  0.3713208537383395  0.2010937045832293  0.5786815978754305
  0.7087286212710708  0.1993698589423758  0.5758623033283357
  0.0385903092505657  0.5313707248095341  0.9200760312101721
  0.3795430367286627  0.5308834029744389  0.9188020118946554
  0.7234324229168152  0.5442498010053214  0.9198885851620204
  0.0373295252578956  0.8769603752516275  0.9237100246805312
  0.3720974324702624  0.8803411205998160  0.9253165854696164
  0.7145118219204463  0.8709244484746819  0.9136940191390011
  0.0383123413010082  0.2038226177419631  0.9215151816290046
  0.3746254379802139  0.1997117256648835  0.9157989888852498
  0.7130039862773856  0.2125043206018162  0.9214621297456773

  0.00000000E+00  0.00000000E+00  0.00000000E+00
  0.00000000E+00  0.00000000E+00  0.00000000E+00
  0.00000000E+00  0.00000000E+00  0.00000000E+00
  0.00000000E+00  0.00000000E+00  0.00000000E+00
  0.00000000E+00  0.00000000E+00  0.00000000E+00
  0.00000000E+00  0.00000000E+00  0.00000000E+00
  0.00000000E+00  0.00000000E+00  0.00000000E+00
  0.00000000E+00  0.00000000E+00  0.00000000E+00
  0.00000000E+00  0.00000000E+00  0.00000000E+00
  0.00000000E+00  0.00000000E+00  0.00000000E+00
  0.00000000E+00  0.00000000E+00  0.00000000E+00
  0.00000000E+00  0.00000000E+00  0.00000000E+00
  0.00000000E+00  0.00000000E+00  0.00000000E+00
  0.00000000E+00  0.00000000E+00  0.00000000E+00
  0.00000000E+00  0.00000000E+00  0.00000000E+00
  0.00000000E+00  0.00000000E+00  0.00000000E+00
  0.00000000E+00  0.00000000E+00  0.00000000E+00
  0.00000000E+00  0.00000000E+00  0.00000000E+00
  0.00000000E+00  0.00000000E+00  0.00000000E+00
  0.00000000E+00  0.00000000E+00  0.00000000E+00
  0.00000000E+00  0.00000000E+00  0.00000000E+00
  0.00000000E+00  0.00000000E+00  0.00000000E+00
  0.00000000E+00  0.00000000E+00  0.00000000E+00
  0.00000000E+00  0.00000000E+00  0.00000000E+00
  0.00000000E+00  0.00000000E+00  0.00000000E+00
  0.00000000E+00  0.00000000E+00  0.00000000E+00
  0.00000000E+00  0.00000000E+00  0.00000000E+00
  0.00000000E+00  0.00000000E+00  0.00000000E+00
  0.00000000E+00  0.00000000E+00  0.00000000E+00
  0.00000000E+00  0.00000000E+00  0.00000000E+00
  0.00000000E+00  0.00000000E+00  0.00000000E+00
  0.00000000E+00  0.00000000E+00  0.00000000E+00
  0.00000000E+00  0.00000000E+00  0.00000000E+00
  0.00000000E+00  0.00000000E+00  0.00000000E+00
  0.00000000E+00  0.00000000E+00  0.00000000E+00
  0.00000000E+00  0.00000000E+00  0.00000000E+00
  0.00000000E+00  0.00000000E+00  0.00000000E+00
  0.00000000E+00  0.00000000E+00  0.00000000E+00
  0.00000000E+00  0.00000000E+00  0.00000000E+00
  0.00000000E+00  0.00000000E+00  0.00000000E+00
  0.00000000E+00  0.00000000E+00  0.00000000E+00
  0.00000000E+00  0.00000000E+00  0.00000000E+00
  0.00000000E+00  0.00000000E+00  0.00000000E+00
  0.00000000E+00  0.00000000E+00  0.00000000E+00
  0.00000000E+00  0.00000000E+00  0.00000000E+00
  0.00000000E+00  0.00000000E+00  0.00000000E+00
  0.00000000E+00  0.00000000E+00  0.00000000E+00
  0.00000000E+00  0.00000000E+00  0.00000000E+00
  0.00000000E+00  0.00000000E+00  0.00000000E+00
  0.00000000E+00  0.00000000E+00  0.00000000E+00
  0.00000000E+00  0.00000000E+00  0.00000000E+00
  0.00000000E+00  0.00000000E+00  0.00000000E+00
  0.00000000E+00  0.00000000E+00  0.00000000E+00
  0.00000000E+00  0.00000000E+00  0.00000000E+00
  0.00000000E+00  0.00000000E+00  0.00000000E+00
  0.00000000E+00  0.00000000E+00  0.00000000E+00
  0.00000000E+00  0.00000000E+00  0.00000000E+00
  0.00000000E+00  0.00000000E+00  0.00000000E+00
  0.00000000E+00  0.00000000E+00  0.00000000E+00
  0.00000000E+00  0.00000000E+00  0.00000000E+00
  0.00000000E+00  0.00000000E+00  0.00000000E+00
  0.00000000E+00  0.00000000E+00  0.00000000E+00
  0.00000000E+00  0.00000000E+00  0.00000000E+00
  0.00000000E+00  0.00000000E+00  0.00000000E+00
  0.00000000E+00  0.00000000E+00  0.00000000E+00
  0.00000000E+00  0.00000000E+00  0.00000000E+00
  0.00000000E+00  0.00000000E+00  0.00000000E+00
  0.00000000E+00  0.00000000E+00  0.00000000E+00
  0.00000000E+00  0.00000000E+00  0.00000000E+00
  0.00000000E+00  0.00000000E+00  0.00000000E+00
  0.00000000E+00  0.00000000E+00  0.00000000E+00
  0.00000000E+00  0.00000000E+00  0.00000000E+00
  0.00000000E+00  0.00000000E+00  0.00000000E+00
  0.00000000E+00  0.00000000E+00  0.00000000E+00
  0.00000000E+00  0.00000000E+00  0.00000000E+00
  0.00000000E+00  0.00000000E+00  0.00000000E+00
  0.00000000E+00  0.00000000E+00  0.00000000E+00
  0.00000000E+00  0.00000000E+00  0.00000000E+00
  0.00000000E+00  0.00000000E+00  0.00000000E+00
  0.00000000E+00  0.00000000E+00  0.00000000E+00
  0.00000000E+00  0.00000000E+00  0.00000000E+00
  0.00000000E+00  0.00000000E+00  0.00000000E+00
  0.00000000E+00  0.00000000E+00  0.00000000E+00
  0.00000000E+00  0.00000000E+00  0.00000000E+00
  0.00000000E+00  0.00000000E+00  0.00000000E+00
  0.00000000E+00  0.00000000E+00  0.00000000E+00
  0.00000000E+00  0.00000000E+00  0.00000000E+00
  0.00000000E+00  0.00000000E+00  0.00000000E+00
  0.00000000E+00  0.00000000E+00  0.00000000E+00
  0.00000000E+00  0.00000000E+00  0.00000000E+00
  0.00000000E+00  0.00000000E+00  0.00000000E+00
  0.00000000E+00  0.00000000E+00  0.00000000E+00
  0.00000000E+00  0.00000000E+00  0.00000000E+00
  0.00000000E+00  0.00000000E+00  0.00000000E+00
  0.00000000E+00  0.00000000E+00  0.00000000E+00
  0.00000000E+00  0.00000000E+00  0.00000000E+00
  0.00000000E+00  0.00000000E+00  0.00000000E+00
  0.00000000E+00  0.00000000E+00  0.00000000E+00
  0.00000000E+00  0.00000000E+00  0.00000000E+00
  0.00000000E+00  0.00000000E+00  0.00000000E+00
  0.00000000E+00  0.00000000E+00  0.00000000E+00
  0.00000000E+00  0.00000000E+00  0.00000000E+00
  0.00000000E+00  0.00000000E+00  0.00000000E+00
  0.00000000E+00  0.00000000E+00  0.00000000E+00
  0.00000000E+00  0.00000000E+00  0.00000000E+00
  0.00000000E+00  0.00000000E+00  0.00000000E+00
  0.00000000E+00  0.00000000E+00  0.00000000E+00
  0.00000000E+00  0.00000000E+00  0.00000000E+00
  0.00000000E+00  0.00000000E+00  0.00000000E+00
  0.00000000E+00  0.00000000E+00  0.00000000E+00
  0.00000000E+00  0.00000000E+00  0.00000000E+00
  0.00000000E+00  0.00000000E+00  0.00000000E+00
  0.00000000E+00  0.00000000E+00  0.00000000E+00
  0.00000000E+00  0.00000000E+00  0.00000000E+00
  0.00000000E+00  0.00000000E+00  0.00000000E+00
  0.00000000E+00  0.00000000E+00  0.00000000E+00
  0.00000000E+00  0.00000000E+00  0.00000000E+00
  0.00000000E+00  0.00000000E+00  0.00000000E+00
  0.00000000E+00  0.00000000E+00  0.00000000E+00
  0.00000000E+00  0.00000000E+00  0.00000000E+00
  0.00000000E+00  0.00000000E+00  0.00000000E+00
  0.00000000E+00  0.00000000E+00  0.00000000E+00
  0.00000000E+00  0.00000000E+00  0.00000000E+00
  0.00000000E+00  0.00000000E+00  0.00000000E+00
  0.00000000E+00  0.00000000E+00  0.00000000E+00
  0.00000000E+00  0.00000000E+00  0.00000000E+00
  0.00000000E+00  0.00000000E+00  0.00000000E+00
  0.00000000E+00  0.00000000E+00  0.00000000E+00
  0.00000000E+00  0.00000000E+00  0.00000000E+00
  0.00000000E+00  0.00000000E+00  0.00000000E+00
  0.00000000E+00  0.00000000E+00  0.00000000E+00
  0.00000000E+00  0.00000000E+00  0.00000000E+00
  0.00000000E+00  0.00000000E+00  0.00000000E+00
  0.00000000E+00  0.00000000E+00  0.00000000E+00
  0.00000000E+00  0.00000000E+00  0.00000000E+00
  0.00000000E+00  0.00000000E+00  0.00000000E+00
  0.00000000E+00  0.00000000E+00  0.00000000E+00
  0.00000000E+00  0.00000000E+00  0.00000000E+00
  0.00000000E+00  0.00000000E+00  0.00000000E+00
  0.00000000E+00  0.00000000E+00  0.00000000E+00
  0.00000000E+00  0.00000000E+00  0.00000000E+00
  0.00000000E+00  0.00000000E+00  0.00000000E+00
  0.00000000E+00  0.00000000E+00  0.00000000E+00
  0.00000000E+00  0.00000000E+00  0.00000000E+00
  0.00000000E+00  0.00000000E+00  0.00000000E+00
  0.00000000E+00  0.00000000E+00  0.00000000E+00
  0.00000000E+00  0.00000000E+00  0.00000000E+00
  0.00000000E+00  0.00000000E+00  0.00000000E+00
  0.00000000E+00  0.00000000E+00  0.00000000E+00
  0.00000000E+00  0.00000000E+00  0.00000000E+00
  0.00000000E+00  0.00000000E+00  0.00000000E+00
  0.00000000E+00  0.00000000E+00  0.00000000E+00
  0.00000000E+00  0.00000000E+00  0.00000000E+00
  0.00000000E+00  0.00000000E+00  0.00000000E+00
  0.00000000E+00  0.00000000E+00  0.00000000E+00
  0.00000000E+00  0.00000000E+00  0.00000000E+00
  0.00000000E+00  0.00000000E+00  0.00000000E+00
  0.00000000E+00  0.00000000E+00  0.00000000E+00
  0.00000000E+00  0.00000000E+00  0.00000000E+00
  0.00000000E+00  0.00000000E+00  0.00000000E+00
  0.00000000E+00  0.00000000E+00  0.00000000E+00
  0.00000000E+00  0.00000000E+00  0.00000000E+00
  0.00000000E+00  0.00000000E+00  0.00000000E+00
  0.00000000E+00  0.00000000E+00  0.00000000E+00
  0.00000000E+00  0.00000000E+00  0.00000000E+00
  0.00000000E+00  0.00000000E+00  0.00000000E+00
  0.00000000E+00  0.00000000E+00  0.00000000E+00
  0.00000000E+00  0.00000000E+00  0.00000000E+00
  0.00000000E+00  0.00000000E+00  0.00000000E+00
  0.00000000E+00  0.00000000E+00  0.00000000E+00
  0.00000000E+00  0.00000000E+00  0.00000000E+00
  0.00000000E+00  0.00000000E+00  0.00000000E+00
  0.00000000E+00  0.00000000E+00  0.00000000E+00
  0.00000000E+00  0.00000000E+00  0.00000000E+00
  0.00000000E+00  0.00000000E+00  0.00000000E+00
  0.00000000E+00  0.00000000E+00  0.00000000E+00
  0.00000000E+00  0.00000000E+00  0.00000000E+00
  0.00000000E+00  0.00000000E+00  0.00000000E+00
  0.00000000E+00  0.00000000E+00  0.00000000E+00
  0.00000000E+00  0.00000000E+00  0.00000000E+00
  0.00000000E+00  0.00000000E+00  0.00000000E+00
  0.00000000E+00  0.00000000E+00  0.00000000E+00
  0.00000000E+00  0.00000000E+00  0.00000000E+00
  0.00000000E+00  0.00000000E+00  0.00000000E+00
  0.00000000E+00  0.00000000E+00  0.00000000E+00
  0.00000000E+00  0.00000000E+00  0.00000000E+00
  0.00000000E+00  0.00000000E+00  0.00000000E+00
  0.00000000E+00  0.00000000E+00  0.00000000E+00
  0.00000000E+00  0.00000000E+00  0.00000000E+00
  0.00000000E+00  0.00000000E+00  0.00000000E+00
  0.00000000E+00  0.00000000E+00  0.00000000E+00
  0.00000000E+00  0.00000000E+00  0.00000000E+00
  0.00000000E+00  0.00000000E+00  0.00000000E+00
  0.00000000E+00  0.00000000E+00  0.00000000E+00
  0.00000000E+00  0.00000000E+00  0.00000000E+00
  0.00000000E+00  0.00000000E+00  0.00000000E+00
  0.00000000E+00  0.00000000E+00  0.00000000E+00
  0.00000000E+00  0.00000000E+00  0.00000000E+00
  0.00000000E+00  0.00000000E+00  0.00000000E+00
  0.00000000E+00  0.00000000E+00  0.00000000E+00
  0.00000000E+00  0.00000000E+00  0.00000000E+00
  0.00000000E+00  0.00000000E+00  0.00000000E+00
  0.00000000E+00  0.00000000E+00  0.00000000E+00
  0.00000000E+00  0.00000000E+00  0.00000000E+00
  0.00000000E+00  0.00000000E+00  0.00000000E+00
  0.00000000E+00  0.00000000E+00  0.00000000E+00
  0.00000000E+00  0.00000000E+00  0.00000000E+00
  0.00000000E+00  0.00000000E+00  0.00000000E+00
  0.00000000E+00  0.00000000E+00  0.00000000E+00
  0.00000000E+00  0.00000000E+00  0.00000000E+00
  0.00000000E+00  0.00000000E+00  0.00000000E+00
  0.00000000E+00  0.00000000E+00  0.00000000E+00
  0.00000000E+00  0.00000000E+00  0.00000000E+00
  0.00000000E+00  0.00000000E+00  0.00000000E+00
  0.00000000E+00  0.00000000E+00  0.00000000E+00
  0.00000000E+00  0.00000000E+00  0.00000000E+00
