In54 Cu54 Se108                         
   1.0000000000000000     
    16.1219830000000002    0.0000000000000000   -7.1789490000000002
    -3.1967099999999999   15.8018789999999996   -7.1789490000000002
     0.0000000000000000    0.0000000000000000   21.6923020000000015
   In   Cu   Se
    54    54   108
Direct
  0.1666669999999968  0.5000000000000000  0.0000000000000000
  0.5000000000000000  0.5000000000000000  0.0000000000000000
  0.8333330000000032  0.5000000000000000  0.0000000000000000
  0.1666669999999968  0.8333330000000032  0.0000000000000000
  0.5000000000000000  0.8333330000000032  0.0000000000000000
  0.8333330000000032  0.8333330000000032  0.0000000000000000
  0.1666669999999968  0.1666669999999968  0.0000000000000000
  0.5000000000000000  0.1666669999999968  0.0000000000000000
  0.8333330000000032  0.1666669999999968  0.0000000000000000
  0.1666669999999968  0.5000000000000000  0.3333330000000032
  0.5000000000000000  0.5000000000000000  0.3333330000000032
  0.8333330000000032  0.5000000000000000  0.3333330000000032
  0.1666669999999968  0.8333330000000032  0.3333330000000032
  0.5000000000000000  0.8333330000000032  0.3333330000000032
  0.8333330000000032  0.8333330000000032  0.3333330000000032
  0.1666669999999968  0.1666669999999968  0.3333330000000032
  0.5000000000000000  0.1666669999999968  0.3333330000000032
  0.8333330000000032  0.1666669999999968  0.3333330000000032
  0.1666669999999968  0.5000000000000000  0.6666669999999968
  0.5000000000000000  0.5000000000000000  0.6666669999999968
  0.8333330000000032  0.5000000000000000  0.6666669999999968
  0.1666669999999968  0.8333330000000032  0.6666669999999968
  0.5000000000000000  0.8333330000000032  0.6666669999999968
  0.8333330000000032  0.8333330000000032  0.6666669999999968
  0.1666669999999968  0.1666669999999968  0.6666669999999968
  0.5000000000000000  0.1666669999999968  0.6666669999999968
  0.8333330000000032  0.1666669999999968  0.6666669999999968
  0.2500000000000000  0.4166669999999968  0.1666669999999968
  0.5833330000000032  0.4166669999999968  0.1666669999999968
  0.9166669999999968  0.4166669999999968  0.1666669999999968
  0.2500000000000000  0.7500000000000000  0.1666669999999968
  0.5833330000000032  0.7500000000000000  0.1666669999999968
  0.9166669999999968  0.7500000000000000  0.1666669999999968
  0.2500000000000000  0.0833330000000032  0.1666669999999968
  0.5833330000000032  0.0833330000000032  0.1666669999999968
  0.9166669999999968  0.0833330000000032  0.1666669999999968
  0.2500000000000000  0.4166669999999968  0.5000000000000000
  0.5833330000000032  0.4166669999999968  0.5000000000000000
  0.9166669999999968  0.4166669999999968  0.5000000000000000
  0.2500000000000000  0.7500000000000000  0.5000000000000000
  0.5833330000000032  0.7500000000000000  0.5000000000000000
  0.9166669999999968  0.7500000000000000  0.5000000000000000
  0.2500000000000000  0.0833330000000032  0.5000000000000000
  0.5833330000000032  0.0833330000000032  0.5000000000000000
  0.9166669999999968  0.0833330000000032  0.5000000000000000
  0.2500000000000000  0.4166669999999968  0.8333330000000032
  0.5833330000000032  0.4166669999999968  0.8333330000000032
  0.9166669999999968  0.4166669999999968  0.8333330000000032
  0.2500000000000000  0.7500000000000000  0.8333330000000032
  0.5833330000000032  0.7500000000000000  0.8333330000000032
  0.9166669999999968  0.7500000000000000  0.8333330000000032
  0.2500000000000000  0.0833330000000032  0.8333330000000032
  0.5833330000000032  0.0833330000000032  0.8333330000000032
  0.9166669999999968  0.0833330000000032  0.8333330000000032
  0.0000000000000000  0.3333330000000032  0.0000000000000000
  0.3333330000000032  0.3333330000000032  0.0000000000000000
  0.6666669999999968  0.3333330000000032  0.0000000000000000
  0.0000000000000000  0.6666669999999968  0.0000000000000000
  0.3333330000000032  0.6666669999999968  0.0000000000000000
  0.6666669999999968  0.6666669999999968  0.0000000000000000
  0.0000000000000000  0.0000000000000000  0.0000000000000000
  0.3333330000000032  0.0000000000000000  0.0000000000000000
  0.6666669999999968  0.0000000000000000  0.0000000000000000
  0.0000000000000000  0.3333330000000032  0.3333330000000032
  0.3333330000000032  0.3333330000000032  0.3333330000000032
  0.6666669999999968  0.3333330000000032  0.3333330000000032
  0.0000000000000000  0.6666669999999968  0.3333330000000032
  0.3333330000000032  0.6666669999999968  0.3333330000000032
  0.6666669999999968  0.6666669999999968  0.3333330000000032
  0.0000000000000000  0.0000000000000000  0.3333330000000032
  0.3333330000000032  0.0000000000000000  0.3333330000000032
  0.6666669999999968  0.0000000000000000  0.3333330000000032
  0.0000000000000000  0.3333330000000032  0.6666669999999968
  0.3333330000000032  0.3333330000000032  0.6666669999999968
  0.6666669999999968  0.3333330000000032  0.6666669999999968
  0.0000000000000000  0.6666669999999968  0.6666669999999968
  0.3333330000000032  0.6666669999999968  0.6666669999999968
  0.6666669999999968  0.6666669999999968  0.6666669999999968
  0.0000000000000000  0.0000000000000000  0.6666669999999968
  0.3333330000000032  0.0000000000000000  0.6666669999999968
  0.6666669999999968  0.0000000000000000  0.6666669999999968
  0.0833330000000032  0.5833330000000032  0.1666669999999968
  0.4166669999999968  0.5833330000000032  0.1666669999999968
  0.7500000000000000  0.5833330000000032  0.1666669999999968
  0.0833330000000032  0.9166669999999968  0.1666669999999968
  0.4166669999999968  0.9166669999999968  0.1666669999999968
  0.7500000000000000  0.9166669999999968  0.1666669999999968
  0.0833330000000032  0.2500000000000000  0.1666669999999968
  0.4166669999999968  0.2500000000000000  0.1666669999999968
  0.7500000000000000  0.2500000000000000  0.1666669999999968
  0.0833330000000032  0.5833330000000032  0.5000000000000000
  0.4166669999999968  0.5833330000000032  0.5000000000000000
  0.7500000000000000  0.5833330000000032  0.5000000000000000
  0.0833330000000032  0.9166669999999968  0.5000000000000000
  0.4166669999999968  0.9166669999999968  0.5000000000000000
  0.7500000000000000  0.9166669999999968  0.5000000000000000
  0.0833330000000032  0.2500000000000000  0.5000000000000000
  0.4166669999999968  0.2500000000000000  0.5000000000000000
  0.7500000000000000  0.2500000000000000  0.5000000000000000
  0.0833330000000032  0.5833330000000032  0.8333330000000032
  0.4166669999999968  0.5833330000000032  0.8333330000000032
  0.7500000000000000  0.5833330000000032  0.8333330000000032
  0.0833330000000032  0.9166669999999968  0.8333330000000032
  0.4166669999999968  0.9166669999999968  0.8333330000000032
  0.7500000000000000  0.9166669999999968  0.8333330000000032
  0.0833330000000032  0.2500000000000000  0.8333330000000032
  0.4166669999999968  0.2500000000000000  0.8333330000000032
  0.7500000000000000  0.2500000000000000  0.8333330000000032
  0.1140970000000010  0.4583330000000032  0.0833330000000032
  0.4474310000000017  0.4583330000000032  0.0833330000000032
  0.7807639999999978  0.4583330000000032  0.0833330000000032
  0.1140970000000010  0.7916669999999968  0.0833330000000032
  0.4474310000000017  0.7916669999999968  0.0833330000000032
  0.7807639999999978  0.7916669999999968  0.0833330000000032
  0.1140970000000010  0.1250000000000000  0.0833330000000032
  0.4474310000000017  0.1250000000000000  0.0833330000000032
  0.7807639999999978  0.1250000000000000  0.0833330000000032
  0.1140970000000010  0.4583330000000032  0.4166669999999968
  0.4474310000000017  0.4583330000000032  0.4166669999999968
  0.7807639999999978  0.4583330000000032  0.4166669999999968
  0.1140970000000010  0.7916669999999968  0.4166669999999968
  0.4474310000000017  0.7916669999999968  0.4166669999999968
  0.7807639999999978  0.7916669999999968  0.4166669999999968
  0.1140970000000010  0.1250000000000000  0.4166669999999968
  0.4474310000000017  0.1250000000000000  0.4166669999999968
  0.7807639999999978  0.1250000000000000  0.4166669999999968
  0.1140970000000010  0.4583330000000032  0.7500000000000000
  0.4474310000000017  0.4583330000000032  0.7500000000000000
  0.7807639999999978  0.4583330000000032  0.7500000000000000
  0.1140970000000010  0.7916669999999968  0.7500000000000000
  0.4474310000000017  0.7916669999999968  0.7500000000000000
  0.7807639999999978  0.7916669999999968  0.7500000000000000
  0.1140970000000010  0.1250000000000000  0.7500000000000000
  0.4474310000000017  0.1250000000000000  0.7500000000000000
  0.7807639999999978  0.1250000000000000  0.7500000000000000
  0.3025689999999983  0.6250000000000000  0.0833330000000032
  0.6359029999999990  0.6250000000000000  0.0833330000000032
  0.9692360000000022  0.6250000000000000  0.0833330000000032
  0.3025689999999983  0.9583330000000032  0.0833330000000032
  0.6359029999999990  0.9583330000000032  0.0833330000000032
  0.9692360000000022  0.9583330000000032  0.0833330000000032
  0.3025689999999983  0.2916669999999968  0.0833330000000032
  0.6359029999999990  0.2916669999999968  0.0833330000000032
  0.9692360000000022  0.2916669999999968  0.0833330000000032
  0.3025689999999983  0.6250000000000000  0.4166669999999968
  0.6359029999999990  0.6250000000000000  0.4166669999999968
  0.9692360000000022  0.6250000000000000  0.4166669999999968
  0.3025689999999983  0.9583330000000032  0.4166669999999968
  0.6359029999999990  0.9583330000000032  0.4166669999999968
  0.9692360000000022  0.9583330000000032  0.4166669999999968
  0.3025689999999983  0.2916669999999968  0.4166669999999968
  0.6359029999999990  0.2916669999999968  0.4166669999999968
  0.9692360000000022  0.2916669999999968  0.4166669999999968
  0.3025689999999983  0.6250000000000000  0.7500000000000000
  0.6359029999999990  0.6250000000000000  0.7500000000000000
  0.9692360000000022  0.6250000000000000  0.7500000000000000
  0.3025689999999983  0.9583330000000032  0.7500000000000000
  0.6359029999999990  0.9583330000000032  0.7500000000000000
  0.9692360000000022  0.9583330000000032  0.7500000000000000
  0.3025689999999983  0.2916669999999968  0.7500000000000000
  0.6359029999999990  0.2916669999999968  0.7500000000000000
  0.9692360000000022  0.2916669999999968  0.7500000000000000
  0.2083330000000032  0.3640970000000010  0.2500000000000000
  0.5416669999999968  0.3640970000000010  0.2500000000000000
  0.8750000000000000  0.3640970000000010  0.2500000000000000
  0.2083330000000032  0.6974310000000017  0.2500000000000000
  0.5416669999999968  0.6974310000000017  0.2500000000000000
  0.8750000000000000  0.6974310000000017  0.2500000000000000
  0.2083330000000032  0.0307639999999978  0.2500000000000000
  0.5416669999999968  0.0307639999999978  0.2500000000000000
  0.8750000000000000  0.0307639999999978  0.2500000000000000
  0.2083330000000032  0.3640970000000010  0.5833330000000032
  0.5416669999999968  0.3640970000000010  0.5833330000000032
  0.8750000000000000  0.3640970000000010  0.5833330000000032
  0.2083330000000032  0.6974310000000017  0.5833330000000032
  0.5416669999999968  0.6974310000000017  0.5833330000000032
  0.8750000000000000  0.6974310000000017  0.5833330000000032
  0.2083330000000032  0.0307639999999978  0.5833330000000032
  0.5416669999999968  0.0307639999999978  0.5833330000000032
  0.8750000000000000  0.0307639999999978  0.5833330000000032
  0.2083330000000032  0.3640970000000010  0.9166669999999968
  0.5416669999999968  0.3640970000000010  0.9166669999999968
  0.8750000000000000  0.3640970000000010  0.9166669999999968
  0.2083330000000032  0.6974310000000017  0.9166669999999968
  0.5416669999999968  0.6974310000000017  0.9166669999999968
  0.8750000000000000  0.6974310000000017  0.9166669999999968
  0.2083330000000032  0.0307639999999978  0.9166669999999968
  0.5416669999999968  0.0307639999999978  0.9166669999999968
  0.8750000000000000  0.0307639999999978  0.9166669999999968
  0.0416669999999968  0.5525689999999983  0.2500000000000000
  0.3750000000000000  0.5525689999999983  0.2500000000000000
  0.7083330000000032  0.5525689999999983  0.2500000000000000
  0.0416669999999968  0.8859029999999990  0.2500000000000000
  0.3750000000000000  0.8859029999999990  0.2500000000000000
  0.7083330000000032  0.8859029999999990  0.2500000000000000
  0.0416669999999968  0.2192360000000022  0.2500000000000000
  0.3750000000000000  0.2192360000000022  0.2500000000000000
  0.7083330000000032  0.2192360000000022  0.2500000000000000
  0.0416669999999968  0.5525689999999983  0.5833330000000032
  0.3750000000000000  0.5525689999999983  0.5833330000000032
  0.7083330000000032  0.5525689999999983  0.5833330000000032
  0.0416669999999968  0.8859029999999990  0.5833330000000032
  0.3750000000000000  0.8859029999999990  0.5833330000000032
  0.7083330000000032  0.8859029999999990  0.5833330000000032
  0.0416669999999968  0.2192360000000022  0.5833330000000032
  0.3750000000000000  0.2192360000000022  0.5833330000000032
  0.7083330000000032  0.2192360000000022  0.5833330000000032
  0.0416669999999968  0.5525689999999983  0.9166669999999968
  0.3750000000000000  0.5525689999999983  0.9166669999999968
  0.7083330000000032  0.5525689999999983  0.9166669999999968
  0.0416669999999968  0.8859029999999990  0.9166669999999968
  0.3750000000000000  0.8859029999999990  0.9166669999999968
  0.7083330000000032  0.8859029999999990  0.9166669999999968
  0.0416669999999968  0.2192360000000022  0.9166669999999968
  0.3750000000000000  0.2192360000000022  0.9166669999999968
  0.7083330000000032  0.2192360000000022  0.9166669999999968

  0.00000000E+00  0.00000000E+00  0.00000000E+00
  0.00000000E+00  0.00000000E+00  0.00000000E+00
  0.00000000E+00  0.00000000E+00  0.00000000E+00
  0.00000000E+00  0.00000000E+00  0.00000000E+00
  0.00000000E+00  0.00000000E+00  0.00000000E+00
  0.00000000E+00  0.00000000E+00  0.00000000E+00
  0.00000000E+00  0.00000000E+00  0.00000000E+00
  0.00000000E+00  0.00000000E+00  0.00000000E+00
  0.00000000E+00  0.00000000E+00  0.00000000E+00
  0.00000000E+00  0.00000000E+00  0.00000000E+00
  0.00000000E+00  0.00000000E+00  0.00000000E+00
  0.00000000E+00  0.00000000E+00  0.00000000E+00
  0.00000000E+00  0.00000000E+00  0.00000000E+00
  0.00000000E+00  0.00000000E+00  0.00000000E+00
  0.00000000E+00  0.00000000E+00  0.00000000E+00
  0.00000000E+00  0.00000000E+00  0.00000000E+00
  0.00000000E+00  0.00000000E+00  0.00000000E+00
  0.00000000E+00  0.00000000E+00  0.00000000E+00
  0.00000000E+00  0.00000000E+00  0.00000000E+00
  0.00000000E+00  0.00000000E+00  0.00000000E+00
  0.00000000E+00  0.00000000E+00  0.00000000E+00
  0.00000000E+00  0.00000000E+00  0.00000000E+00
  0.00000000E+00  0.00000000E+00  0.00000000E+00
  0.00000000E+00  0.00000000E+00  0.00000000E+00
  0.00000000E+00  0.00000000E+00  0.00000000E+00
  0.00000000E+00  0.00000000E+00  0.00000000E+00
  0.00000000E+00  0.00000000E+00  0.00000000E+00
  0.00000000E+00  0.00000000E+00  0.00000000E+00
  0.00000000E+00  0.00000000E+00  0.00000000E+00
  0.00000000E+00  0.00000000E+00  0.00000000E+00
  0.00000000E+00  0.00000000E+00  0.00000000E+00
  0.00000000E+00  0.00000000E+00  0.00000000E+00
  0.00000000E+00  0.00000000E+00  0.00000000E+00
  0.00000000E+00  0.00000000E+00  0.00000000E+00
  0.00000000E+00  0.00000000E+00  0.00000000E+00
  0.00000000E+00  0.00000000E+00  0.00000000E+00
  0.00000000E+00  0.00000000E+00  0.00000000E+00
  0.00000000E+00  0.00000000E+00  0.00000000E+00
  0.00000000E+00  0.00000000E+00  0.00000000E+00
  0.00000000E+00  0.00000000E+00  0.00000000E+00
  0.00000000E+00  0.00000000E+00  0.00000000E+00
  0.00000000E+00  0.00000000E+00  0.00000000E+00
  0.00000000E+00  0.00000000E+00  0.00000000E+00
  0.00000000E+00  0.00000000E+00  0.00000000E+00
  0.00000000E+00  0.00000000E+00  0.00000000E+00
  0.00000000E+00  0.00000000E+00  0.00000000E+00
  0.00000000E+00  0.00000000E+00  0.00000000E+00
  0.00000000E+00  0.00000000E+00  0.00000000E+00
  0.00000000E+00  0.00000000E+00  0.00000000E+00
  0.00000000E+00  0.00000000E+00  0.00000000E+00
  0.00000000E+00  0.00000000E+00  0.00000000E+00
  0.00000000E+00  0.00000000E+00  0.00000000E+00
  0.00000000E+00  0.00000000E+00  0.00000000E+00
  0.00000000E+00  0.00000000E+00  0.00000000E+00
  0.00000000E+00  0.00000000E+00  0.00000000E+00
  0.00000000E+00  0.00000000E+00  0.00000000E+00
  0.00000000E+00  0.00000000E+00  0.00000000E+00
  0.00000000E+00  0.00000000E+00  0.00000000E+00
  0.00000000E+00  0.00000000E+00  0.00000000E+00
  0.00000000E+00  0.00000000E+00  0.00000000E+00
  0.00000000E+00  0.00000000E+00  0.00000000E+00
  0.00000000E+00  0.00000000E+00  0.00000000E+00
  0.00000000E+00  0.00000000E+00  0.00000000E+00
  0.00000000E+00  0.00000000E+00  0.00000000E+00
  0.00000000E+00  0.00000000E+00  0.00000000E+00
  0.00000000E+00  0.00000000E+00  0.00000000E+00
  0.00000000E+00  0.00000000E+00  0.00000000E+00
  0.00000000E+00  0.00000000E+00  0.00000000E+00
  0.00000000E+00  0.00000000E+00  0.00000000E+00
  0.00000000E+00  0.00000000E+00  0.00000000E+00
  0.00000000E+00  0.00000000E+00  0.00000000E+00
  0.00000000E+00  0.00000000E+00  0.00000000E+00
  0.00000000E+00  0.00000000E+00  0.00000000E+00
  0.00000000E+00  0.00000000E+00  0.00000000E+00
  0.00000000E+00  0.00000000E+00  0.00000000E+00
  0.00000000E+00  0.00000000E+00  0.00000000E+00
  0.00000000E+00  0.00000000E+00  0.00000000E+00
  0.00000000E+00  0.00000000E+00  0.00000000E+00
  0.00000000E+00  0.00000000E+00  0.00000000E+00
  0.00000000E+00  0.00000000E+00  0.00000000E+00
  0.00000000E+00  0.00000000E+00  0.00000000E+00
  0.00000000E+00  0.00000000E+00  0.00000000E+00
  0.00000000E+00  0.00000000E+00  0.00000000E+00
  0.00000000E+00  0.00000000E+00  0.00000000E+00
  0.00000000E+00  0.00000000E+00  0.00000000E+00
  0.00000000E+00  0.00000000E+00  0.00000000E+00
  0.00000000E+00  0.00000000E+00  0.00000000E+00
  0.00000000E+00  0.00000000E+00  0.00000000E+00
  0.00000000E+00  0.00000000E+00  0.00000000E+00
  0.00000000E+00  0.00000000E+00  0.00000000E+00
  0.00000000E+00  0.00000000E+00  0.00000000E+00
  0.00000000E+00  0.00000000E+00  0.00000000E+00
  0.00000000E+00  0.00000000E+00  0.00000000E+00
  0.00000000E+00  0.00000000E+00  0.00000000E+00
  0.00000000E+00  0.00000000E+00  0.00000000E+00
  0.00000000E+00  0.00000000E+00  0.00000000E+00
  0.00000000E+00  0.00000000E+00  0.00000000E+00
  0.00000000E+00  0.00000000E+00  0.00000000E+00
  0.00000000E+00  0.00000000E+00  0.00000000E+00
  0.00000000E+00  0.00000000E+00  0.00000000E+00
  0.00000000E+00  0.00000000E+00  0.00000000E+00
  0.00000000E+00  0.00000000E+00  0.00000000E+00
  0.00000000E+00  0.00000000E+00  0.00000000E+00
  0.00000000E+00  0.00000000E+00  0.00000000E+00
  0.00000000E+00  0.00000000E+00  0.00000000E+00
  0.00000000E+00  0.00000000E+00  0.00000000E+00
  0.00000000E+00  0.00000000E+00  0.00000000E+00
  0.00000000E+00  0.00000000E+00  0.00000000E+00
  0.00000000E+00  0.00000000E+00  0.00000000E+00
  0.00000000E+00  0.00000000E+00  0.00000000E+00
  0.00000000E+00  0.00000000E+00  0.00000000E+00
  0.00000000E+00  0.00000000E+00  0.00000000E+00
  0.00000000E+00  0.00000000E+00  0.00000000E+00
  0.00000000E+00  0.00000000E+00  0.00000000E+00
  0.00000000E+00  0.00000000E+00  0.00000000E+00
  0.00000000E+00  0.00000000E+00  0.00000000E+00
  0.00000000E+00  0.00000000E+00  0.00000000E+00
  0.00000000E+00  0.00000000E+00  0.00000000E+00
  0.00000000E+00  0.00000000E+00  0.00000000E+00
  0.00000000E+00  0.00000000E+00  0.00000000E+00
  0.00000000E+00  0.00000000E+00  0.00000000E+00
  0.00000000E+00  0.00000000E+00  0.00000000E+00
  0.00000000E+00  0.00000000E+00  0.00000000E+00
  0.00000000E+00  0.00000000E+00  0.00000000E+00
  0.00000000E+00  0.00000000E+00  0.00000000E+00
  0.00000000E+00  0.00000000E+00  0.00000000E+00
  0.00000000E+00  0.00000000E+00  0.00000000E+00
  0.00000000E+00  0.00000000E+00  0.00000000E+00
  0.00000000E+00  0.00000000E+00  0.00000000E+00
  0.00000000E+00  0.00000000E+00  0.00000000E+00
  0.00000000E+00  0.00000000E+00  0.00000000E+00
  0.00000000E+00  0.00000000E+00  0.00000000E+00
  0.00000000E+00  0.00000000E+00  0.00000000E+00
  0.00000000E+00  0.00000000E+00  0.00000000E+00
  0.00000000E+00  0.00000000E+00  0.00000000E+00
  0.00000000E+00  0.00000000E+00  0.00000000E+00
  0.00000000E+00  0.00000000E+00  0.00000000E+00
  0.00000000E+00  0.00000000E+00  0.00000000E+00
  0.00000000E+00  0.00000000E+00  0.00000000E+00
  0.00000000E+00  0.00000000E+00  0.00000000E+00
  0.00000000E+00  0.00000000E+00  0.00000000E+00
  0.00000000E+00  0.00000000E+00  0.00000000E+00
  0.00000000E+00  0.00000000E+00  0.00000000E+00
  0.00000000E+00  0.00000000E+00  0.00000000E+00
  0.00000000E+00  0.00000000E+00  0.00000000E+00
  0.00000000E+00  0.00000000E+00  0.00000000E+00
  0.00000000E+00  0.00000000E+00  0.00000000E+00
  0.00000000E+00  0.00000000E+00  0.00000000E+00
  0.00000000E+00  0.00000000E+00  0.00000000E+00
  0.00000000E+00  0.00000000E+00  0.00000000E+00
  0.00000000E+00  0.00000000E+00  0.00000000E+00
  0.00000000E+00  0.00000000E+00  0.00000000E+00
  0.00000000E+00  0.00000000E+00  0.00000000E+00
  0.00000000E+00  0.00000000E+00  0.00000000E+00
  0.00000000E+00  0.00000000E+00  0.00000000E+00
  0.00000000E+00  0.00000000E+00  0.00000000E+00
  0.00000000E+00  0.00000000E+00  0.00000000E+00
  0.00000000E+00  0.00000000E+00  0.00000000E+00
  0.00000000E+00  0.00000000E+00  0.00000000E+00
  0.00000000E+00  0.00000000E+00  0.00000000E+00
  0.00000000E+00  0.00000000E+00  0.00000000E+00
  0.00000000E+00  0.00000000E+00  0.00000000E+00
  0.00000000E+00  0.00000000E+00  0.00000000E+00
  0.00000000E+00  0.00000000E+00  0.00000000E+00
  0.00000000E+00  0.00000000E+00  0.00000000E+00
  0.00000000E+00  0.00000000E+00  0.00000000E+00
  0.00000000E+00  0.00000000E+00  0.00000000E+00
  0.00000000E+00  0.00000000E+00  0.00000000E+00
  0.00000000E+00  0.00000000E+00  0.00000000E+00
  0.00000000E+00  0.00000000E+00  0.00000000E+00
  0.00000000E+00  0.00000000E+00  0.00000000E+00
  0.00000000E+00  0.00000000E+00  0.00000000E+00
  0.00000000E+00  0.00000000E+00  0.00000000E+00
  0.00000000E+00  0.00000000E+00  0.00000000E+00
  0.00000000E+00  0.00000000E+00  0.00000000E+00
  0.00000000E+00  0.00000000E+00  0.00000000E+00
  0.00000000E+00  0.00000000E+00  0.00000000E+00
  0.00000000E+00  0.00000000E+00  0.00000000E+00
  0.00000000E+00  0.00000000E+00  0.00000000E+00
  0.00000000E+00  0.00000000E+00  0.00000000E+00
  0.00000000E+00  0.00000000E+00  0.00000000E+00
  0.00000000E+00  0.00000000E+00  0.00000000E+00
  0.00000000E+00  0.00000000E+00  0.00000000E+00
  0.00000000E+00  0.00000000E+00  0.00000000E+00
  0.00000000E+00  0.00000000E+00  0.00000000E+00
  0.00000000E+00  0.00000000E+00  0.00000000E+00
  0.00000000E+00  0.00000000E+00  0.00000000E+00
  0.00000000E+00  0.00000000E+00  0.00000000E+00
  0.00000000E+00  0.00000000E+00  0.00000000E+00
  0.00000000E+00  0.00000000E+00  0.00000000E+00
  0.00000000E+00  0.00000000E+00  0.00000000E+00
  0.00000000E+00  0.00000000E+00  0.00000000E+00
  0.00000000E+00  0.00000000E+00  0.00000000E+00
  0.00000000E+00  0.00000000E+00  0.00000000E+00
  0.00000000E+00  0.00000000E+00  0.00000000E+00
  0.00000000E+00  0.00000000E+00  0.00000000E+00
  0.00000000E+00  0.00000000E+00  0.00000000E+00
  0.00000000E+00  0.00000000E+00  0.00000000E+00
  0.00000000E+00  0.00000000E+00  0.00000000E+00
  0.00000000E+00  0.00000000E+00  0.00000000E+00
  0.00000000E+00  0.00000000E+00  0.00000000E+00
  0.00000000E+00  0.00000000E+00  0.00000000E+00
  0.00000000E+00  0.00000000E+00  0.00000000E+00
  0.00000000E+00  0.00000000E+00  0.00000000E+00
  0.00000000E+00  0.00000000E+00  0.00000000E+00
  0.00000000E+00  0.00000000E+00  0.00000000E+00
  0.00000000E+00  0.00000000E+00  0.00000000E+00
  0.00000000E+00  0.00000000E+00  0.00000000E+00
  0.00000000E+00  0.00000000E+00  0.00000000E+00
  0.00000000E+00  0.00000000E+00  0.00000000E+00
  0.00000000E+00  0.00000000E+00  0.00000000E+00
  0.00000000E+00  0.00000000E+00  0.00000000E+00
  0.00000000E+00  0.00000000E+00  0.00000000E+00
  0.00000000E+00  0.00000000E+00  0.00000000E+00
  0.00000000E+00  0.00000000E+00  0.00000000E+00
  0.00000000E+00  0.00000000E+00  0.00000000E+00
