Ga54 Cu30 Ag24 Se108                    
   1.0000000000000000     
    15.8888997868874675   -0.0008613080285780   -7.2855584413222338
    -3.3225318295273212   15.5396637006552893   -7.2564144928368908
     0.0105284346696267    0.0124078991415331   21.0105399505215864
   Ga   Cu   Ag   Se
    54    30    24   108
Direct
  0.1624484028937800  0.5048206725968569  0.0026978625918375
  0.5025742929877168  0.5065060440990763  0.0013410199373922
  0.8381464953604336  0.5033041416831807  0.9998150760196509
  0.1617844898688503  0.8315742759259592  0.0005248864662946
  0.4982543083179181  0.8276170028360781  0.9995800540157660
  0.8395509534355270  0.8271026874611707  0.0009870445010520
  0.1634646532540955  0.1664555978562987  0.0014635911143444
  0.4958028452489955  0.1681254882437457  0.0013347357051430
  0.8425341345874031  0.1689506136935250  0.0005360205452618
  0.1665676212688609  0.5019374518790585  0.3350194865912641
  0.4937448887667699  0.4960051436593531  0.3296929960775756
  0.8387317782958803  0.5037414160641447  0.3313421706858861
  0.1665494251848472  0.8332251130012835  0.3314773045443218
  0.4994947339079445  0.8369784160005338  0.3341228893107839
  0.8334427709230212  0.8331527530539447  0.3350896792834774
  0.1711878455340354  0.1653997629618758  0.3339573053405545
  0.4964399247990556  0.1638844715692400  0.3333639888070863
  0.8308583293001561  0.1635394411690569  0.3327236003838863
  0.1621804369000444  0.4989615540420687  0.6651379886555162
  0.5023793827512932  0.4978385029302075  0.6663222350642215
  0.8330537278969317  0.4988500709892989  0.6658463489594553
  0.1639675016829898  0.8337363682820325  0.6658539442587141
  0.5004744628403301  0.8341888729890172  0.6670928847265856
  0.8359288437930701  0.8310653386107560  0.6646599408584422
  0.1615181752153632  0.1671176320943815  0.6645286651742239
  0.5018706020294701  0.1663002856478002  0.6660191262851143
  0.8338488114048559  0.1675763210430432  0.6659139939463401
  0.2455603361425531  0.4151693273459429  0.1668248936491992
  0.5816302414012426  0.4215505569437781  0.1665276954202426
  0.9227005493071516  0.4226494161557781  0.1666834267556823
  0.2479856169480925  0.7528011636014327  0.1680886190322184
  0.5824303961459165  0.7511055442602768  0.1686422916317269
  0.9204149764027463  0.7458772297875385  0.1667734872083315
  0.2485799508967901  0.0807937564795864  0.1680276308594699
  0.5781946485103759  0.0792973360487252  0.1674010988758710
  0.9234682141028117  0.0829703797415320  0.1660627873138480
  0.2494904064847034  0.4140572812647605  0.4992239750094498
  0.5803484410369251  0.4112136395465100  0.4983892679014730
  0.9178114519515717  0.4155315578020975  0.4988631175976934
  0.2474902939798511  0.7510074468732455  0.4979628400342548
  0.5832140100624201  0.7520753188324178  0.4998800727348467
  0.9198304868598797  0.7508605386784666  0.5012789051229447
  0.2553102892977321  0.0860493376679230  0.5012422608207459
  0.5812375848879228  0.0819873186504694  0.4973085882767023
  0.9109035043507205  0.0842764410093508  0.4994232838407129
  0.2450121536823531  0.4228095137848698  0.8332129748762256
  0.5879847145088206  0.4212654572892731  0.8359384746828340
  0.9168958311059328  0.4190404337509506  0.8335792022612836
  0.2465529247459202  0.7423484014624080  0.8324616946195107
  0.5870307978683300  0.7425468573377074  0.8336748874168194
  0.9175546476017828  0.7447742297281152  0.8318064851416409
  0.2457860207696143  0.0824363666862666  0.8299635134529595
  0.5844383601707079  0.0870462742511720  0.8333389737717027
  0.9185787757943302  0.0871211447718565  0.8349307841017861
  0.9994283333604415  0.3370343928960153  0.0018128746092287
  0.0004242880116365  0.6664657450108038  0.0000227345508179
  0.6680535087357740  0.6639724559501943  0.9994330490361705
  0.0021857645179182  0.0004358108046532  0.0050620205488912
  0.3289651048295568  0.3280864685089924  0.3295547094103739
  0.9999065635683380  0.6664306585937396  0.3316161161284938
  0.3323888001569841  0.9988490057284949  0.3346675412230979
  0.6634084869436379  0.0014134808946906  0.3346352026720609
  0.9970327985108796  0.3345776710535873  0.6615255522530106
  0.0010134200585199  0.6622917456713964  0.6653014210120531
  0.6673906564248924  0.6639348308197413  0.6672144191605369
  0.9950497207010827  0.0002901073524555  0.6645667351814382
  0.3333037049797269  0.9968463328551564  0.6647174451367093
  0.0835378627716707  0.5821959334954485  0.1659073344205879
  0.4128545273353410  0.5846605271695609  0.1672389559171279
  0.7515057214491847  0.5894167669223549  0.1668575836703781
  0.0861055479265076  0.9158547897787770  0.1657736699288037
  0.4155081611984954  0.9166018456349363  0.1707850067165140
  0.0869488367269113  0.2511218264358348  0.1651609779001149
  0.4142324197300198  0.2498936186930294  0.1694708835020862
  0.0801049760691441  0.5838991003831921  0.4993182212964058
  0.4132006012919121  0.9204651911791757  0.5024509621931372
  0.7506549572785559  0.9204471318309118  0.4992843159444291
  0.0804399746539985  0.2487642980113733  0.5018825626848056
  0.4137589739300012  0.2466480372726494  0.4946783890027575
  0.7526960762407739  0.2480586087753878  0.4994751832594417
  0.0763687140858806  0.5793218901879200  0.8298042759423012
  0.4216221932436781  0.5838464110675119  0.8353732701931165
  0.7507531120430500  0.5854194842175175  0.8347522468681632
  0.7553818757490021  0.2557739412300180  0.8362928202376523
  0.3343646958715993  0.3379535470300326  0.0062346328197549
  0.6777088493921681  0.3341366847591445  0.0018719525383162
  0.3297829619106949  0.6668002781053346  0.9998256982568350
  0.3318748897561932  0.9992846047838029  0.0015870567704397
  0.6719474107273200  0.0001953921596254  0.0007122681107035
  0.0042736392435074  0.3292448305120530  0.3346058075946843
  0.6614572755127242  0.3335931022706120  0.3337108099408965
  0.3372660332328721  0.6708561533758015  0.3347976510055020
  0.6666172881866430  0.6671051529051226  0.3315607552935020
  0.0063153888217400  0.0029914390041483  0.3350422771919312
  0.3332016782613962  0.3352728152016482  0.6669305239546119
  0.6682965255345081  0.3326684087640928  0.6677903065448660
  0.3257592756802765  0.6683978304253202  0.6677780771763437
  0.6722182578159490  0.9992490087069044  0.6651361681155734
  0.7488465963590301  0.9110259834898713  0.1656826160037355
  0.7481060825541235  0.2520623667776931  0.1659395991991417
  0.4250378465382738  0.5816870732642769  0.5032327367367913
  0.7500115086052617  0.5823501461117999  0.5004441795552168
  0.0882792742708602  0.9210081149968019  0.5038390062667091
  0.0782446362695666  0.9089795169467791  0.8293940505518336
  0.4167721604522399  0.9167371713754449  0.8332564969906784
  0.7553114648891395  0.9145761997463921  0.8334842331512178
  0.0802439847274385  0.2513825946978798  0.8311127468943837
  0.4189959633638622  0.2524318079256815  0.8314117625898518
  0.1219327799170600  0.4583411973423424  0.0837727968804245
  0.4639223868544420  0.4717892410263289  0.0883663601317863
  0.8022008520621142  0.4712910545726530  0.0891015722401391
  0.1217673364001968  0.7898329062281420  0.0830688270786197
  0.4619665767949073  0.7982459225086771  0.0897672548888551
  0.7959298967653794  0.7810428012061763  0.0795877063167651
  0.1241036535223756  0.1226533156858594  0.0844993378048855
  0.4615598206483469  0.1324638449798670  0.0903067337305288
  0.8056846969744669  0.1279715043019465  0.0839825465228969
  0.1308867757211800  0.4664493016704370  0.4229177730977938
  0.4562401358088266  0.4452386249084554  0.4084904639459168
  0.8004106229969992  0.4572908625587573  0.4122755649596286
  0.1241513825129843  0.7870363690560112  0.4104830217434738
  0.4648194788552260  0.8046392203960124  0.4246469524068957
  0.7981422167086691  0.7983210595632571  0.4230758540024908
  0.1350270471196140  0.1359803975217417  0.4248041100852262
  0.4542007923642188  0.1221174877416473  0.4150733528635939
  0.7864001762726645  0.1228903829004864  0.4144727459606301
  0.1177855533885364  0.4587132206223217  0.7473613066527136
  0.4667890091616940  0.4653627944435428  0.7551559132554218
  0.7969634165446209  0.4669943512420360  0.7554124092160706
  0.1268382336709735  0.7809492190426326  0.7442414050790589
  0.4682653714787506  0.7879030436940724  0.7505582138899243
  0.7946946003245685  0.7809829615904533  0.7429421315838241
  0.1209380734079488  0.1176327933780215  0.7426751986999705
  0.4583802505977772  0.1177338983176597  0.7434295647665223
  0.7987923349839434  0.1358308697458313  0.7558411966066458
  0.2879666580219649  0.6251617744427520  0.0898251984569427
  0.6280314855926363  0.6301768138412740  0.0853277439085005
  0.9639988857296657  0.6246126757534256  0.0831727280480408
  0.2882513635578476  0.9527980872093096  0.0884784162033583
  0.6139892957016926  0.9563214163764187  0.0809115696176761
  0.9617018452170285  0.9548315307377280  0.0840920922699766
  0.2877419953398714  0.2884370497154265  0.0896540392888170
  0.6135654586745503  0.2948080367057813  0.0807275217625332
  0.9643214252082259  0.2960412579826794  0.0855436360239779
  0.2881821115532759  0.6257649895712376  0.4192901892121057
  0.6126957703714240  0.6223769374713939  0.4141032743465090
  0.9619198754272134  0.6284051651536515  0.4163203827577675
  0.2915628101225280  0.9577652961328553  0.4163627745529368
  0.6259224068363665  0.9588273814421413  0.4166343173052809
  0.9506463462894317  0.9609686560202206  0.4171826021094631
  0.2928389753507332  0.2911190518078186  0.4152306656918583
  0.6231930665141263  0.2851299086671943  0.4216797035375279
  0.9556066516304895  0.2858654473098525  0.4199064155086560
  0.2901978120950730  0.6173652887163712  0.7555986734653715
  0.6283688782939194  0.6212194932351878  0.7484868397639701
  0.9587902149953891  0.6221563090087940  0.7464542249702717
  0.2848242517999466  0.9594067046474422  0.7442385384530681
  0.6199020619461919  0.9595176936172649  0.7512733432363206
  0.9514824932688342  0.9623802917096569  0.7454945366621075
  0.2790427335655963  0.2943001519359854  0.7509295620052470
  0.6258013661899966  0.2903122382389682  0.7573855829683183
  0.9508780696064747  0.2969527019041109  0.7421710969881161
  0.2076377732805668  0.3754206340544144  0.2523649558807364
  0.5328662596386522  0.3763834583622057  0.2431574536463756
  0.8802293669453363  0.3836555171025111  0.2486504501706506
  0.2016500531923597  0.7089242343312350  0.2454935781347984
  0.5309897801756520  0.7099480463935492  0.2458704895531270
  0.8768748145873388  0.7093242860537714  0.2518411943127745
  0.2094182547714212  0.0379653908878836  0.2517509806171603
  0.5380315766715000  0.0386231038821379  0.2512320537655413
  0.8756145007371572  0.0480641241764630  0.2474762501377512
  0.1976785865963606  0.3747280244363438  0.5774488416995922
  0.5329790165812156  0.3712530029175980  0.5776888474627739
  0.8720334592783914  0.3737844849517487  0.5800091696954723
  0.1981535315110392  0.7111131882965651  0.5768904293547337
  0.5522808859133761  0.7166512483161256  0.5900171272130734
  0.8845805705106997  0.7110827319641757  0.5872107637580086
  0.2190076945384902  0.0523790098193118  0.5897753164831201
  0.5366614477606078  0.0422079820376666  0.5786519775008756
  0.8738646139940514  0.0418194808992425  0.5837228935549419
  0.2071545040664020  0.3879694604028572  0.9195235740598093
  0.5464275853710703  0.3865180354830713  0.9201739237541915
  0.8776164027919293  0.3764902251662079  0.9174893956152985
  0.1943579033559999  0.7062990157525704  0.9112012977014103
  0.5438643996930637  0.7045843746173688  0.9182809249608113
  0.8771930949691864  0.7028921036288409  0.9153450265390077
  0.2036557157945467  0.0474978315290215  0.9144575407497797
  0.5437908038536605  0.0531699544585749  0.9191904328279747
  0.8864940986157137  0.0460080727047156  0.9216808346131344
  0.0457528856107459  0.5465960801752985  0.2515428166047258
  0.3724640052958605  0.5347744013596980  0.2437412158970176
  0.7124100755778997  0.5378421342314965  0.2440282688606459
  0.0438398336916848  0.8697800456961673  0.2443634695388894
  0.3729626031741873  0.8774494951186753  0.2520530272165402
  0.7053828061388216  0.8745148591839467  0.2576374340417544
  0.0500025003171132  0.2022025861328274  0.2450201233904608
  0.3729414789167009  0.2062446586091724  0.2496447967457982
  0.7049999221302627  0.1979515755555923  0.2486048647732559
  0.0404054894343773  0.5418797160392401  0.5811789837357182
  0.3746447193957536  0.5342185562723003  0.5859918352922122
  0.7028912362498474  0.5363862973368967  0.5857503042918779
  0.0388514304330698  0.8769409793242744  0.5889328152072579
  0.3737496215410872  0.8745219288099690  0.5826402596780724
  0.7136064503929944  0.8671499606009121  0.5759878492614661
  0.0368005556113644  0.2082117733207767  0.5815566494261262
  0.3809679450373764  0.2064595605972954  0.5800476607719958
  0.7094667896010023  0.2011898633805274  0.5770775238559267
  0.0400676138890717  0.5446811763093891  0.9169047137623849
  0.3768174072765973  0.5387801085532971  0.9117574732974489
  0.7124862994947421  0.5446180350904299  0.9173581084800517
  0.0361157420581009  0.8734156013135035  0.9216191553857698
  0.3717923480074532  0.8620033536484044  0.9150914313155312
  0.7126389625369995  0.8623254520482462  0.9179997362183627
  0.0404422635335848  0.2118281097678292  0.9231891758046373
  0.3711006196173088  0.2024493568859000  0.9150546093297507
  0.7166710851135107  0.2024812745142555  0.9118650244133661

  0.00000000E+00  0.00000000E+00  0.00000000E+00
  0.00000000E+00  0.00000000E+00  0.00000000E+00
  0.00000000E+00  0.00000000E+00  0.00000000E+00
  0.00000000E+00  0.00000000E+00  0.00000000E+00
  0.00000000E+00  0.00000000E+00  0.00000000E+00
  0.00000000E+00  0.00000000E+00  0.00000000E+00
  0.00000000E+00  0.00000000E+00  0.00000000E+00
  0.00000000E+00  0.00000000E+00  0.00000000E+00
  0.00000000E+00  0.00000000E+00  0.00000000E+00
  0.00000000E+00  0.00000000E+00  0.00000000E+00
  0.00000000E+00  0.00000000E+00  0.00000000E+00
  0.00000000E+00  0.00000000E+00  0.00000000E+00
  0.00000000E+00  0.00000000E+00  0.00000000E+00
  0.00000000E+00  0.00000000E+00  0.00000000E+00
  0.00000000E+00  0.00000000E+00  0.00000000E+00
  0.00000000E+00  0.00000000E+00  0.00000000E+00
  0.00000000E+00  0.00000000E+00  0.00000000E+00
  0.00000000E+00  0.00000000E+00  0.00000000E+00
  0.00000000E+00  0.00000000E+00  0.00000000E+00
  0.00000000E+00  0.00000000E+00  0.00000000E+00
  0.00000000E+00  0.00000000E+00  0.00000000E+00
  0.00000000E+00  0.00000000E+00  0.00000000E+00
  0.00000000E+00  0.00000000E+00  0.00000000E+00
  0.00000000E+00  0.00000000E+00  0.00000000E+00
  0.00000000E+00  0.00000000E+00  0.00000000E+00
  0.00000000E+00  0.00000000E+00  0.00000000E+00
  0.00000000E+00  0.00000000E+00  0.00000000E+00
  0.00000000E+00  0.00000000E+00  0.00000000E+00
  0.00000000E+00  0.00000000E+00  0.00000000E+00
  0.00000000E+00  0.00000000E+00  0.00000000E+00
  0.00000000E+00  0.00000000E+00  0.00000000E+00
  0.00000000E+00  0.00000000E+00  0.00000000E+00
  0.00000000E+00  0.00000000E+00  0.00000000E+00
  0.00000000E+00  0.00000000E+00  0.00000000E+00
  0.00000000E+00  0.00000000E+00  0.00000000E+00
  0.00000000E+00  0.00000000E+00  0.00000000E+00
  0.00000000E+00  0.00000000E+00  0.00000000E+00
  0.00000000E+00  0.00000000E+00  0.00000000E+00
  0.00000000E+00  0.00000000E+00  0.00000000E+00
  0.00000000E+00  0.00000000E+00  0.00000000E+00
  0.00000000E+00  0.00000000E+00  0.00000000E+00
  0.00000000E+00  0.00000000E+00  0.00000000E+00
  0.00000000E+00  0.00000000E+00  0.00000000E+00
  0.00000000E+00  0.00000000E+00  0.00000000E+00
  0.00000000E+00  0.00000000E+00  0.00000000E+00
  0.00000000E+00  0.00000000E+00  0.00000000E+00
  0.00000000E+00  0.00000000E+00  0.00000000E+00
  0.00000000E+00  0.00000000E+00  0.00000000E+00
  0.00000000E+00  0.00000000E+00  0.00000000E+00
  0.00000000E+00  0.00000000E+00  0.00000000E+00
  0.00000000E+00  0.00000000E+00  0.00000000E+00
  0.00000000E+00  0.00000000E+00  0.00000000E+00
  0.00000000E+00  0.00000000E+00  0.00000000E+00
  0.00000000E+00  0.00000000E+00  0.00000000E+00
  0.00000000E+00  0.00000000E+00  0.00000000E+00
  0.00000000E+00  0.00000000E+00  0.00000000E+00
  0.00000000E+00  0.00000000E+00  0.00000000E+00
  0.00000000E+00  0.00000000E+00  0.00000000E+00
  0.00000000E+00  0.00000000E+00  0.00000000E+00
  0.00000000E+00  0.00000000E+00  0.00000000E+00
  0.00000000E+00  0.00000000E+00  0.00000000E+00
  0.00000000E+00  0.00000000E+00  0.00000000E+00
  0.00000000E+00  0.00000000E+00  0.00000000E+00
  0.00000000E+00  0.00000000E+00  0.00000000E+00
  0.00000000E+00  0.00000000E+00  0.00000000E+00
  0.00000000E+00  0.00000000E+00  0.00000000E+00
  0.00000000E+00  0.00000000E+00  0.00000000E+00
  0.00000000E+00  0.00000000E+00  0.00000000E+00
  0.00000000E+00  0.00000000E+00  0.00000000E+00
  0.00000000E+00  0.00000000E+00  0.00000000E+00
  0.00000000E+00  0.00000000E+00  0.00000000E+00
  0.00000000E+00  0.00000000E+00  0.00000000E+00
  0.00000000E+00  0.00000000E+00  0.00000000E+00
  0.00000000E+00  0.00000000E+00  0.00000000E+00
  0.00000000E+00  0.00000000E+00  0.00000000E+00
  0.00000000E+00  0.00000000E+00  0.00000000E+00
  0.00000000E+00  0.00000000E+00  0.00000000E+00
  0.00000000E+00  0.00000000E+00  0.00000000E+00
  0.00000000E+00  0.00000000E+00  0.00000000E+00
  0.00000000E+00  0.00000000E+00  0.00000000E+00
  0.00000000E+00  0.00000000E+00  0.00000000E+00
  0.00000000E+00  0.00000000E+00  0.00000000E+00
  0.00000000E+00  0.00000000E+00  0.00000000E+00
  0.00000000E+00  0.00000000E+00  0.00000000E+00
  0.00000000E+00  0.00000000E+00  0.00000000E+00
  0.00000000E+00  0.00000000E+00  0.00000000E+00
  0.00000000E+00  0.00000000E+00  0.00000000E+00
  0.00000000E+00  0.00000000E+00  0.00000000E+00
  0.00000000E+00  0.00000000E+00  0.00000000E+00
  0.00000000E+00  0.00000000E+00  0.00000000E+00
  0.00000000E+00  0.00000000E+00  0.00000000E+00
  0.00000000E+00  0.00000000E+00  0.00000000E+00
  0.00000000E+00  0.00000000E+00  0.00000000E+00
  0.00000000E+00  0.00000000E+00  0.00000000E+00
  0.00000000E+00  0.00000000E+00  0.00000000E+00
  0.00000000E+00  0.00000000E+00  0.00000000E+00
  0.00000000E+00  0.00000000E+00  0.00000000E+00
  0.00000000E+00  0.00000000E+00  0.00000000E+00
  0.00000000E+00  0.00000000E+00  0.00000000E+00
  0.00000000E+00  0.00000000E+00  0.00000000E+00
  0.00000000E+00  0.00000000E+00  0.00000000E+00
  0.00000000E+00  0.00000000E+00  0.00000000E+00
  0.00000000E+00  0.00000000E+00  0.00000000E+00
  0.00000000E+00  0.00000000E+00  0.00000000E+00
  0.00000000E+00  0.00000000E+00  0.00000000E+00
  0.00000000E+00  0.00000000E+00  0.00000000E+00
  0.00000000E+00  0.00000000E+00  0.00000000E+00
  0.00000000E+00  0.00000000E+00  0.00000000E+00
  0.00000000E+00  0.00000000E+00  0.00000000E+00
  0.00000000E+00  0.00000000E+00  0.00000000E+00
  0.00000000E+00  0.00000000E+00  0.00000000E+00
  0.00000000E+00  0.00000000E+00  0.00000000E+00
  0.00000000E+00  0.00000000E+00  0.00000000E+00
  0.00000000E+00  0.00000000E+00  0.00000000E+00
  0.00000000E+00  0.00000000E+00  0.00000000E+00
  0.00000000E+00  0.00000000E+00  0.00000000E+00
  0.00000000E+00  0.00000000E+00  0.00000000E+00
  0.00000000E+00  0.00000000E+00  0.00000000E+00
  0.00000000E+00  0.00000000E+00  0.00000000E+00
  0.00000000E+00  0.00000000E+00  0.00000000E+00
  0.00000000E+00  0.00000000E+00  0.00000000E+00
  0.00000000E+00  0.00000000E+00  0.00000000E+00
  0.00000000E+00  0.00000000E+00  0.00000000E+00
  0.00000000E+00  0.00000000E+00  0.00000000E+00
  0.00000000E+00  0.00000000E+00  0.00000000E+00
  0.00000000E+00  0.00000000E+00  0.00000000E+00
  0.00000000E+00  0.00000000E+00  0.00000000E+00
  0.00000000E+00  0.00000000E+00  0.00000000E+00
  0.00000000E+00  0.00000000E+00  0.00000000E+00
  0.00000000E+00  0.00000000E+00  0.00000000E+00
  0.00000000E+00  0.00000000E+00  0.00000000E+00
  0.00000000E+00  0.00000000E+00  0.00000000E+00
  0.00000000E+00  0.00000000E+00  0.00000000E+00
  0.00000000E+00  0.00000000E+00  0.00000000E+00
  0.00000000E+00  0.00000000E+00  0.00000000E+00
  0.00000000E+00  0.00000000E+00  0.00000000E+00
  0.00000000E+00  0.00000000E+00  0.00000000E+00
  0.00000000E+00  0.00000000E+00  0.00000000E+00
  0.00000000E+00  0.00000000E+00  0.00000000E+00
  0.00000000E+00  0.00000000E+00  0.00000000E+00
  0.00000000E+00  0.00000000E+00  0.00000000E+00
  0.00000000E+00  0.00000000E+00  0.00000000E+00
  0.00000000E+00  0.00000000E+00  0.00000000E+00
  0.00000000E+00  0.00000000E+00  0.00000000E+00
  0.00000000E+00  0.00000000E+00  0.00000000E+00
  0.00000000E+00  0.00000000E+00  0.00000000E+00
  0.00000000E+00  0.00000000E+00  0.00000000E+00
  0.00000000E+00  0.00000000E+00  0.00000000E+00
  0.00000000E+00  0.00000000E+00  0.00000000E+00
  0.00000000E+00  0.00000000E+00  0.00000000E+00
  0.00000000E+00  0.00000000E+00  0.00000000E+00
  0.00000000E+00  0.00000000E+00  0.00000000E+00
  0.00000000E+00  0.00000000E+00  0.00000000E+00
  0.00000000E+00  0.00000000E+00  0.00000000E+00
  0.00000000E+00  0.00000000E+00  0.00000000E+00
  0.00000000E+00  0.00000000E+00  0.00000000E+00
  0.00000000E+00  0.00000000E+00  0.00000000E+00
  0.00000000E+00  0.00000000E+00  0.00000000E+00
  0.00000000E+00  0.00000000E+00  0.00000000E+00
  0.00000000E+00  0.00000000E+00  0.00000000E+00
  0.00000000E+00  0.00000000E+00  0.00000000E+00
  0.00000000E+00  0.00000000E+00  0.00000000E+00
  0.00000000E+00  0.00000000E+00  0.00000000E+00
  0.00000000E+00  0.00000000E+00  0.00000000E+00
  0.00000000E+00  0.00000000E+00  0.00000000E+00
  0.00000000E+00  0.00000000E+00  0.00000000E+00
  0.00000000E+00  0.00000000E+00  0.00000000E+00
  0.00000000E+00  0.00000000E+00  0.00000000E+00
  0.00000000E+00  0.00000000E+00  0.00000000E+00
  0.00000000E+00  0.00000000E+00  0.00000000E+00
  0.00000000E+00  0.00000000E+00  0.00000000E+00
  0.00000000E+00  0.00000000E+00  0.00000000E+00
  0.00000000E+00  0.00000000E+00  0.00000000E+00
  0.00000000E+00  0.00000000E+00  0.00000000E+00
  0.00000000E+00  0.00000000E+00  0.00000000E+00
  0.00000000E+00  0.00000000E+00  0.00000000E+00
  0.00000000E+00  0.00000000E+00  0.00000000E+00
  0.00000000E+00  0.00000000E+00  0.00000000E+00
  0.00000000E+00  0.00000000E+00  0.00000000E+00
  0.00000000E+00  0.00000000E+00  0.00000000E+00
  0.00000000E+00  0.00000000E+00  0.00000000E+00
  0.00000000E+00  0.00000000E+00  0.00000000E+00
  0.00000000E+00  0.00000000E+00  0.00000000E+00
  0.00000000E+00  0.00000000E+00  0.00000000E+00
  0.00000000E+00  0.00000000E+00  0.00000000E+00
  0.00000000E+00  0.00000000E+00  0.00000000E+00
  0.00000000E+00  0.00000000E+00  0.00000000E+00
  0.00000000E+00  0.00000000E+00  0.00000000E+00
  0.00000000E+00  0.00000000E+00  0.00000000E+00
  0.00000000E+00  0.00000000E+00  0.00000000E+00
  0.00000000E+00  0.00000000E+00  0.00000000E+00
  0.00000000E+00  0.00000000E+00  0.00000000E+00
  0.00000000E+00  0.00000000E+00  0.00000000E+00
  0.00000000E+00  0.00000000E+00  0.00000000E+00
  0.00000000E+00  0.00000000E+00  0.00000000E+00
  0.00000000E+00  0.00000000E+00  0.00000000E+00
  0.00000000E+00  0.00000000E+00  0.00000000E+00
  0.00000000E+00  0.00000000E+00  0.00000000E+00
  0.00000000E+00  0.00000000E+00  0.00000000E+00
  0.00000000E+00  0.00000000E+00  0.00000000E+00
  0.00000000E+00  0.00000000E+00  0.00000000E+00
  0.00000000E+00  0.00000000E+00  0.00000000E+00
  0.00000000E+00  0.00000000E+00  0.00000000E+00
  0.00000000E+00  0.00000000E+00  0.00000000E+00
  0.00000000E+00  0.00000000E+00  0.00000000E+00
  0.00000000E+00  0.00000000E+00  0.00000000E+00
  0.00000000E+00  0.00000000E+00  0.00000000E+00
  0.00000000E+00  0.00000000E+00  0.00000000E+00
  0.00000000E+00  0.00000000E+00  0.00000000E+00
  0.00000000E+00  0.00000000E+00  0.00000000E+00
  0.00000000E+00  0.00000000E+00  0.00000000E+00
  0.00000000E+00  0.00000000E+00  0.00000000E+00
  0.00000000E+00  0.00000000E+00  0.00000000E+00
  0.00000000E+00  0.00000000E+00  0.00000000E+00
  0.00000000E+00  0.00000000E+00  0.00000000E+00
  0.00000000E+00  0.00000000E+00  0.00000000E+00
