In30 Ga24 Cu30 Ag24 Se108               
   1.0000000000000000     
    16.1799242970419996   -0.0003707631872934   -7.2838533880653564
    -3.2938900005482830   15.8562261020474420   -7.2970213226964695
     0.0048983184394759    0.0078186011202736   21.6035620566396318
   In   Ga   Cu   Ag   Se
    30    24    30    24   108
Direct
  0.8316934195422334  0.8366961263829964  0.0027334383298765
  0.1682636101318167  0.1720931644989037  0.0061132751046742
  0.5042957258817964  0.1625960272055167  0.0000916497349195
  0.8309481309202340  0.1664387604263666  0.0036922621989035
  0.1646433525349522  0.5048520879872314  0.3342184406711013
  0.8332294542936154  0.4998147034891645  0.3320559876551670
  0.1644674857378163  0.1618453243340454  0.3332572308506627
  0.5028173828836557  0.1663992205413223  0.3359770264881874
  0.8336103843455334  0.1673811659109532  0.3326777769900957
  0.8305882212661402  0.5020247653219343  0.6641798549698166
  0.8285915841347631  0.8290872395253004  0.6611411405594936
  0.1719828900325169  0.1646199870509548  0.6634570000017348
  0.4954180658897087  0.1636844394956682  0.6659674134199776
  0.8263146636313721  0.1599687102525849  0.6625761262118601
  0.5869411818438621  0.4211866910052677  0.1699741073537524
  0.2535843827826838  0.7550568187470432  0.1702291570900556
  0.5797415736131484  0.7477912851533048  0.1655312952026549
  0.9194083265880977  0.7522989518342555  0.1715857935807961
  0.2474939764348960  0.0761965584994400  0.1656275418261828
  0.2496187658939846  0.4108817840242693  0.5030539894711481
  0.9194028761081299  0.4180167524463556  0.4996933481791359
  0.9169173550384073  0.7489516060762611  0.5000792922600965
  0.5772365400469894  0.0776120973202907  0.4980225416302133
  0.9154565821484582  0.0776248624149716  0.4966312833464315
  0.2561916025182569  0.4214149087738548  0.8346014761878564
  0.9152017284762053  0.4174145196370418  0.8345249553415215
  0.2486485774888223  0.7486648030572454  0.8311628219845559
  0.9188060674842831  0.7491631135593266  0.8328701017542954
  0.2532639604798135  0.0788106570141878  0.8300445437974417
  0.9129007329232692  0.0824530127040433  0.8330215116001227
  0.1685444456026985  0.5025704994612497  0.9991269033120176
  0.5003471153171404  0.5009535830505669  0.9982617159372893
  0.8331439911222489  0.4952115442633342  0.0023279699850534
  0.1688902114256337  0.8315101247341232  0.0002604076316004
  0.4987370464232370  0.8395630263270277  0.9970690269238034
  0.5026351798224269  0.5062887976976569  0.3385167816473995
  0.1727552221510820  0.8360644246485549  0.3368319893447165
  0.5029652340038879  0.8348331445280408  0.3385340749607124
  0.8316744822416027  0.8329317937169094  0.3349736703474449
  0.1666691268897509  0.4993748440105108  0.6674260528396943
  0.5013581379707190  0.4981243786720952  0.6652634841689817
  0.1688228634248574  0.8338236638114793  0.6628662215038190
  0.4981356486994102  0.8372871185258504  0.6634806112821181
  0.2508965222491994  0.4218703592686737  0.1690781099033885
  0.9173229910511154  0.4143050971623836  0.1678027549729677
  0.5847536837004341  0.0852738877633428  0.1676341227220774
  0.9185760597330983  0.0848533032976277  0.1696742183515454
  0.5821394864754623  0.4203980318451954  0.4993974331796238
  0.2517834684972513  0.7559181552536955  0.4981541857604199
  0.5811347938603291  0.7539100424356420  0.4992788275475419
  0.2529210972380724  0.0826189062053828  0.4993677727383670
  0.5808846185396206  0.4125542020724353  0.8302577616218656
  0.5800546800243183  0.7558228855023117  0.8294241621836704
  0.5776475205763916  0.0776306783014036  0.8297551175864939
  0.0059056417766570  0.3417480839769311  0.0104675291278937
  0.3318626237756916  0.6699685363284189  0.9993032691581831
  0.3386810193056817  0.9946449596450790  0.9988587740352912
  0.6642286446995200  0.0004948343525797  0.0010464584851491
  0.9946238358997377  0.3269754538446890  0.3260634389256793
  0.6673815622777113  0.3361475615622211  0.3339847511238290
  0.0028780993023361  0.6716054162577407  0.3354553641321658
  0.3370317754151273  0.6724990445769592  0.3381941327910596
  0.6647480205675862  0.6755152192982408  0.3419503951955960
  0.0077946322155285  0.9967959182658745  0.3340980703123435
  0.3354771147535516  0.9985475256288154  0.3395968100059648
  0.6663555511933126  0.9929333700965373  0.3319980433016383
  0.3344349886341575  0.3315376729548944  0.6645794751478604
  0.6566714566981275  0.3366962275992407  0.6639297579714096
  0.9988108815627399  0.6658785548774944  0.6652118675919354
  0.6593790480859596  0.6633182684428931  0.6625044545866459
  0.9962820943745854  0.9971378714263253  0.6631482742775177
  0.3391463992668093  0.9946778373936738  0.6666272816233061
  0.6595630036659301  0.9918297892557533  0.6581155616941459
  0.0855189899183912  0.9191683933230266  0.1724091874345746
  0.0783664389877714  0.2554653227277868  0.1690591761777753
  0.7545546618735912  0.2447258632367806  0.1703272043242237
  0.7420618126317109  0.5822738863224615  0.4968980316074791
  0.4124279834188016  0.9113360402119852  0.4966170363956266
  0.7453748479859144  0.9138624843368817  0.4955970989120857
  0.0862336739534513  0.2495555112953340  0.4980850165041275
  0.4210893355189285  0.2525636142028844  0.5045834627899168
  0.0872798650820528  0.5878822686349707  0.8352095424956758
  0.4182982272290801  0.9163680446809295  0.8311490087141777
  0.4184342461984443  0.2485708236780866  0.8303234983686352
  0.3328248373490794  0.3314383308493163  0.9979030209706750
  0.6560310109473946  0.3332098789959730  0.9959834968521619
  0.0079372160329569  0.6678753237266477  0.0026098391603639
  0.6572419916178234  0.6622529288478916  0.9879033715622469
  0.0050255636076528  0.9977032570074584  0.0055995863697262
  0.3286484244852019  0.3385606153342948  0.3323008734191504
  0.0075111954688722  0.3347583286110662  0.6696232553927643
  0.3344788148692004  0.6731983362725913  0.6661973544927875
  0.0848484558895919  0.5825195079864471  0.1683665481930277
  0.4119576818072801  0.5820594927218252  0.1694638951884215
  0.7544062700531597  0.5816566527165463  0.1679402078546985
  0.4197779989326307  0.9177757499373840  0.1676815282776474
  0.7505943873841119  0.9267871613758842  0.1713124228734131
  0.4254870999481213  0.2527525582794823  0.1703258118281923
  0.0887290197764443  0.5797219507890787  0.5009218030019227
  0.4218229559129014  0.5913186318742802  0.5053984490910111
  0.0859085235992794  0.9166353338988529  0.4989033094346524
  0.7413962421717670  0.2458199243806405  0.4972507679440383
  0.4223967111684672  0.5769792551430868  0.8317404999653490
  0.7382322825515217  0.5831642881633741  0.8305003363701360
  0.0914120998647334  0.9177836150745691  0.8309789915944776
  0.7376350871534001  0.9132076879445918  0.8250058572255909
  0.0858357083691033  0.2441217164287295  0.8351846796859093
  0.7505562526623493  0.2534593764011746  0.8353510095957404
  0.1304784922424034  0.4571876771204373  0.0805795084980403
  0.4610382218354871  0.4614077323551768  0.0789567416895025
  0.7968485092631852  0.4520872424678117  0.0832777324271134
  0.1270879005743879  0.8054263777692512  0.0873411816084584
  0.4534652326138371  0.7882106053834832  0.0710400715141546
  0.7871101236666078  0.7906090544877600  0.0855709906797983
  0.1223991368227786  0.1360587756453597  0.0940826510613206
  0.4573619819609505  0.1154674760394272  0.0836492846154187
  0.7879910018255458  0.1188328737946733  0.0897045326981214
  0.1178220101636995  0.4445092225822407  0.4095279742678741
  0.4639588298692274  0.4623547080555994  0.4179425807228228
  0.7833278963835468  0.4597136860815141  0.4173444157499304
  0.1276231628037152  0.7862417060423468  0.4106680676993051
  0.4569897426436498  0.7930100361773569  0.4176797612582632
  0.7856684614356837  0.7949385011152827  0.4153637601975504
  0.1232066305119233  0.1207697504451914  0.4229807730787627
  0.4474222168582216  0.1258237242691393  0.4180390131298566
  0.7818126013131490  0.1159275680253629  0.4106686896680358
  0.1277123885841149  0.4704559187227559  0.7534875247105859
  0.4608226732012355  0.4484644458987930  0.7420979852974270
  0.7807167762446099  0.4519476069659660  0.7439883889944738
  0.1204503501224892  0.7847382754743180  0.7355423342732337
  0.4632540977299584  0.8021126103515996  0.7503706657192026
  0.7818815952255207  0.7812044104693285  0.7431717145108507
  0.1184288498430064  0.1145989621377126  0.7416027052863114
  0.4529411494160485  0.1210085378835259  0.7542056857617183
  0.7760548456114833  0.1131782620196802  0.7428704395946539
  0.2894849081477346  0.6250362525647120  0.0759722636367215
  0.6219960505707576  0.6183128049277755  0.0781277927490081
  0.9507634319524954  0.6182923050262943  0.0785735997703298
  0.2893970136625796  0.9520221973734166  0.0725574983298927
  0.6199606451102966  0.9636225494837305  0.0804435220198201
  0.9652875079829215  0.9626521584618075  0.0971219924850857
  0.2955796989083623  0.3032867843308935  0.0927874714521764
  0.6366139298852431  0.2893217758450390  0.0926093348767552
  0.9636817949789176  0.2978483591717733  0.0881048335818093
  0.2940677496214761  0.6359402018590998  0.4188068061903394
  0.6246755911358051  0.6306253098813315  0.4198303632093356
  0.9647645364042674  0.6269670052314069  0.4129255883918219
  0.2955800609533057  0.9584326606979516  0.4194945391596434
  0.6277147843729054  0.9531012100600620  0.4128127945863653
  0.9550011095206230  0.9508003690878013  0.4048812819342942
  0.2993762496849897  0.2861268260312855  0.4205854401699654
  0.6243488453773764  0.3036723546996853  0.4164068798852441
  0.9697733390620726  0.2917877459614289  0.4156270617271645
  0.2889804583810260  0.6170021631796914  0.7444456161932749
  0.6145083301721641  0.6295737164258952  0.7432843743493720
  0.9695277998567704  0.6240612665537029  0.7496540385885524
  0.2975566846589217  0.9487192808364568  0.7436106370364968
  0.6143805215005855  0.9616062386806874  0.7403602498328397
  0.9596568447951981  0.9585789519290913  0.7446518745770589
  0.3041657196960870  0.2928058313896713  0.7501709875972864
  0.6226686024448966  0.2968383368671823  0.7470817536549603
  0.9561603800802985  0.2867659099154451  0.7485367304073591
  0.1993390990972088  0.3743455100357451  0.2404537500652708
  0.5484012010670583  0.3858233922022833  0.2625495334251511
  0.8744853094985459  0.3653255140803608  0.2446093472108117
  0.2152822404577179  0.7128999458086085  0.2598250383580165
  0.5430236427634227  0.7120367400977514  0.2600006364953131
  0.8807090523860310  0.7135280013968668  0.2621850777746104
  0.2115801633608356  0.0289277373022401  0.2537409557610459
  0.5549809287617293  0.0415770329807756  0.2523090384994404
  0.8906287538435365  0.0430423129295576  0.2550864594741853
  0.2056286759209414  0.3700437941070547  0.5907719441979111
  0.5404419352427112  0.3756504606697604  0.5802676292133242
  0.8737775396937550  0.3713198793195716  0.5815675100645805
  0.2085842127515107  0.7172906893186664  0.5779046149930309
  0.5502758657255953  0.7211057732769817  0.5892765646255640
  0.8717999512245811  0.6931380325293688  0.5797907874419366
  0.2242268065526432  0.0378907192583924  0.5835098974376223
  0.5348369305839142  0.0277363873439143  0.5808798389263643
  0.8715851876606706  0.0274089321548345  0.5795925596560068
  0.2058429628753231  0.3809977454847910  0.9181129247367537
  0.5302442686201445  0.3760489147595720  0.9083106566440975
  0.8837425549001807  0.3779709938578790  0.9292389691575593
  0.2076077799505001  0.7062873599315509  0.9207854369760611
  0.5366021962032903  0.7203049594555821  0.9107036177649164
  0.8729766060267750  0.7065135239091447  0.9169917361204796
  0.2218588265269616  0.0445356717644998  0.9265394511178329
  0.5439789021358692  0.0306883436239858  0.9110459107925095
  0.8725825225371153  0.0357828002886791  0.9180446526685699
  0.0289753905974237  0.5438642788174732  0.2505815808137726
  0.3728439680340188  0.5444387409216986  0.2604003925806424
  0.7066391622479458  0.5578555783587618  0.2604389741505457
  0.0531216645309840  0.8801995601385642  0.2561020330227706
  0.3849251276674579  0.8841004642250354  0.2634697289372454
  0.7112819190682913  0.8762922433646523  0.2563491961240558
  0.0368317053700054  0.2103311070822684  0.2456505864509566
  0.3734691725606964  0.2062183448246557  0.2497807349795380
  0.7021468062978897  0.2140820380016564  0.2483022677846591
  0.0480931919996621  0.5477032120812240  0.5928020511107022
  0.3799641042785993  0.5385708129200211  0.5872904081314942
  0.6987185106149596  0.5471314540092251  0.5785537779565928
  0.0458426595082599  0.8806915062244371  0.5906661926445693
  0.3750250138744633  0.8764676653297201  0.5806165807030226
  0.7005996685040756  0.8772359776370067  0.5750809821662486
  0.0440406061276093  0.2077093483358112  0.5757726789436646
  0.3689633448137570  0.2110312940407368  0.5780426767258859
  0.6978033530733114  0.2140691487543762  0.5877160934671437
  0.0506684677971663  0.5421693590870973  0.9140012788890317
  0.3824189803286870  0.5526725730304918  0.9277511058071397
  0.7070551483902534  0.5273779499761062  0.9162042116955860
  0.0517359825748969  0.8741194915400143  0.9197245421542561
  0.3788660265975210  0.8815319329437656  0.9147384943111376
  0.6991246270710505  0.8787786296457938  0.9176764944985010
  0.0365312498976138  0.2179153175426265  0.9251346334453387
  0.3807401991504022  0.2100716887932137  0.9113746398179643
  0.6969368289424693  0.1988468617884322  0.9110739721815051

  0.00000000E+00  0.00000000E+00  0.00000000E+00
  0.00000000E+00  0.00000000E+00  0.00000000E+00
  0.00000000E+00  0.00000000E+00  0.00000000E+00
  0.00000000E+00  0.00000000E+00  0.00000000E+00
  0.00000000E+00  0.00000000E+00  0.00000000E+00
  0.00000000E+00  0.00000000E+00  0.00000000E+00
  0.00000000E+00  0.00000000E+00  0.00000000E+00
  0.00000000E+00  0.00000000E+00  0.00000000E+00
  0.00000000E+00  0.00000000E+00  0.00000000E+00
  0.00000000E+00  0.00000000E+00  0.00000000E+00
  0.00000000E+00  0.00000000E+00  0.00000000E+00
  0.00000000E+00  0.00000000E+00  0.00000000E+00
  0.00000000E+00  0.00000000E+00  0.00000000E+00
  0.00000000E+00  0.00000000E+00  0.00000000E+00
  0.00000000E+00  0.00000000E+00  0.00000000E+00
  0.00000000E+00  0.00000000E+00  0.00000000E+00
  0.00000000E+00  0.00000000E+00  0.00000000E+00
  0.00000000E+00  0.00000000E+00  0.00000000E+00
  0.00000000E+00  0.00000000E+00  0.00000000E+00
  0.00000000E+00  0.00000000E+00  0.00000000E+00
  0.00000000E+00  0.00000000E+00  0.00000000E+00
  0.00000000E+00  0.00000000E+00  0.00000000E+00
  0.00000000E+00  0.00000000E+00  0.00000000E+00
  0.00000000E+00  0.00000000E+00  0.00000000E+00
  0.00000000E+00  0.00000000E+00  0.00000000E+00
  0.00000000E+00  0.00000000E+00  0.00000000E+00
  0.00000000E+00  0.00000000E+00  0.00000000E+00
  0.00000000E+00  0.00000000E+00  0.00000000E+00
  0.00000000E+00  0.00000000E+00  0.00000000E+00
  0.00000000E+00  0.00000000E+00  0.00000000E+00
  0.00000000E+00  0.00000000E+00  0.00000000E+00
  0.00000000E+00  0.00000000E+00  0.00000000E+00
  0.00000000E+00  0.00000000E+00  0.00000000E+00
  0.00000000E+00  0.00000000E+00  0.00000000E+00
  0.00000000E+00  0.00000000E+00  0.00000000E+00
  0.00000000E+00  0.00000000E+00  0.00000000E+00
  0.00000000E+00  0.00000000E+00  0.00000000E+00
  0.00000000E+00  0.00000000E+00  0.00000000E+00
  0.00000000E+00  0.00000000E+00  0.00000000E+00
  0.00000000E+00  0.00000000E+00  0.00000000E+00
  0.00000000E+00  0.00000000E+00  0.00000000E+00
  0.00000000E+00  0.00000000E+00  0.00000000E+00
  0.00000000E+00  0.00000000E+00  0.00000000E+00
  0.00000000E+00  0.00000000E+00  0.00000000E+00
  0.00000000E+00  0.00000000E+00  0.00000000E+00
  0.00000000E+00  0.00000000E+00  0.00000000E+00
  0.00000000E+00  0.00000000E+00  0.00000000E+00
  0.00000000E+00  0.00000000E+00  0.00000000E+00
  0.00000000E+00  0.00000000E+00  0.00000000E+00
  0.00000000E+00  0.00000000E+00  0.00000000E+00
  0.00000000E+00  0.00000000E+00  0.00000000E+00
  0.00000000E+00  0.00000000E+00  0.00000000E+00
  0.00000000E+00  0.00000000E+00  0.00000000E+00
  0.00000000E+00  0.00000000E+00  0.00000000E+00
  0.00000000E+00  0.00000000E+00  0.00000000E+00
  0.00000000E+00  0.00000000E+00  0.00000000E+00
  0.00000000E+00  0.00000000E+00  0.00000000E+00
  0.00000000E+00  0.00000000E+00  0.00000000E+00
  0.00000000E+00  0.00000000E+00  0.00000000E+00
  0.00000000E+00  0.00000000E+00  0.00000000E+00
  0.00000000E+00  0.00000000E+00  0.00000000E+00
  0.00000000E+00  0.00000000E+00  0.00000000E+00
  0.00000000E+00  0.00000000E+00  0.00000000E+00
  0.00000000E+00  0.00000000E+00  0.00000000E+00
  0.00000000E+00  0.00000000E+00  0.00000000E+00
  0.00000000E+00  0.00000000E+00  0.00000000E+00
  0.00000000E+00  0.00000000E+00  0.00000000E+00
  0.00000000E+00  0.00000000E+00  0.00000000E+00
  0.00000000E+00  0.00000000E+00  0.00000000E+00
  0.00000000E+00  0.00000000E+00  0.00000000E+00
  0.00000000E+00  0.00000000E+00  0.00000000E+00
  0.00000000E+00  0.00000000E+00  0.00000000E+00
  0.00000000E+00  0.00000000E+00  0.00000000E+00
  0.00000000E+00  0.00000000E+00  0.00000000E+00
  0.00000000E+00  0.00000000E+00  0.00000000E+00
  0.00000000E+00  0.00000000E+00  0.00000000E+00
  0.00000000E+00  0.00000000E+00  0.00000000E+00
  0.00000000E+00  0.00000000E+00  0.00000000E+00
  0.00000000E+00  0.00000000E+00  0.00000000E+00
  0.00000000E+00  0.00000000E+00  0.00000000E+00
  0.00000000E+00  0.00000000E+00  0.00000000E+00
  0.00000000E+00  0.00000000E+00  0.00000000E+00
  0.00000000E+00  0.00000000E+00  0.00000000E+00
  0.00000000E+00  0.00000000E+00  0.00000000E+00
  0.00000000E+00  0.00000000E+00  0.00000000E+00
  0.00000000E+00  0.00000000E+00  0.00000000E+00
  0.00000000E+00  0.00000000E+00  0.00000000E+00
  0.00000000E+00  0.00000000E+00  0.00000000E+00
  0.00000000E+00  0.00000000E+00  0.00000000E+00
  0.00000000E+00  0.00000000E+00  0.00000000E+00
  0.00000000E+00  0.00000000E+00  0.00000000E+00
  0.00000000E+00  0.00000000E+00  0.00000000E+00
  0.00000000E+00  0.00000000E+00  0.00000000E+00
  0.00000000E+00  0.00000000E+00  0.00000000E+00
  0.00000000E+00  0.00000000E+00  0.00000000E+00
  0.00000000E+00  0.00000000E+00  0.00000000E+00
  0.00000000E+00  0.00000000E+00  0.00000000E+00
  0.00000000E+00  0.00000000E+00  0.00000000E+00
  0.00000000E+00  0.00000000E+00  0.00000000E+00
  0.00000000E+00  0.00000000E+00  0.00000000E+00
  0.00000000E+00  0.00000000E+00  0.00000000E+00
  0.00000000E+00  0.00000000E+00  0.00000000E+00
  0.00000000E+00  0.00000000E+00  0.00000000E+00
  0.00000000E+00  0.00000000E+00  0.00000000E+00
  0.00000000E+00  0.00000000E+00  0.00000000E+00
  0.00000000E+00  0.00000000E+00  0.00000000E+00
  0.00000000E+00  0.00000000E+00  0.00000000E+00
  0.00000000E+00  0.00000000E+00  0.00000000E+00
  0.00000000E+00  0.00000000E+00  0.00000000E+00
  0.00000000E+00  0.00000000E+00  0.00000000E+00
  0.00000000E+00  0.00000000E+00  0.00000000E+00
  0.00000000E+00  0.00000000E+00  0.00000000E+00
  0.00000000E+00  0.00000000E+00  0.00000000E+00
  0.00000000E+00  0.00000000E+00  0.00000000E+00
  0.00000000E+00  0.00000000E+00  0.00000000E+00
  0.00000000E+00  0.00000000E+00  0.00000000E+00
  0.00000000E+00  0.00000000E+00  0.00000000E+00
  0.00000000E+00  0.00000000E+00  0.00000000E+00
  0.00000000E+00  0.00000000E+00  0.00000000E+00
  0.00000000E+00  0.00000000E+00  0.00000000E+00
  0.00000000E+00  0.00000000E+00  0.00000000E+00
  0.00000000E+00  0.00000000E+00  0.00000000E+00
  0.00000000E+00  0.00000000E+00  0.00000000E+00
  0.00000000E+00  0.00000000E+00  0.00000000E+00
  0.00000000E+00  0.00000000E+00  0.00000000E+00
  0.00000000E+00  0.00000000E+00  0.00000000E+00
  0.00000000E+00  0.00000000E+00  0.00000000E+00
  0.00000000E+00  0.00000000E+00  0.00000000E+00
  0.00000000E+00  0.00000000E+00  0.00000000E+00
  0.00000000E+00  0.00000000E+00  0.00000000E+00
  0.00000000E+00  0.00000000E+00  0.00000000E+00
  0.00000000E+00  0.00000000E+00  0.00000000E+00
  0.00000000E+00  0.00000000E+00  0.00000000E+00
  0.00000000E+00  0.00000000E+00  0.00000000E+00
  0.00000000E+00  0.00000000E+00  0.00000000E+00
  0.00000000E+00  0.00000000E+00  0.00000000E+00
  0.00000000E+00  0.00000000E+00  0.00000000E+00
  0.00000000E+00  0.00000000E+00  0.00000000E+00
  0.00000000E+00  0.00000000E+00  0.00000000E+00
  0.00000000E+00  0.00000000E+00  0.00000000E+00
  0.00000000E+00  0.00000000E+00  0.00000000E+00
  0.00000000E+00  0.00000000E+00  0.00000000E+00
  0.00000000E+00  0.00000000E+00  0.00000000E+00
  0.00000000E+00  0.00000000E+00  0.00000000E+00
  0.00000000E+00  0.00000000E+00  0.00000000E+00
  0.00000000E+00  0.00000000E+00  0.00000000E+00
  0.00000000E+00  0.00000000E+00  0.00000000E+00
  0.00000000E+00  0.00000000E+00  0.00000000E+00
  0.00000000E+00  0.00000000E+00  0.00000000E+00
  0.00000000E+00  0.00000000E+00  0.00000000E+00
  0.00000000E+00  0.00000000E+00  0.00000000E+00
  0.00000000E+00  0.00000000E+00  0.00000000E+00
  0.00000000E+00  0.00000000E+00  0.00000000E+00
  0.00000000E+00  0.00000000E+00  0.00000000E+00
  0.00000000E+00  0.00000000E+00  0.00000000E+00
  0.00000000E+00  0.00000000E+00  0.00000000E+00
  0.00000000E+00  0.00000000E+00  0.00000000E+00
  0.00000000E+00  0.00000000E+00  0.00000000E+00
  0.00000000E+00  0.00000000E+00  0.00000000E+00
  0.00000000E+00  0.00000000E+00  0.00000000E+00
  0.00000000E+00  0.00000000E+00  0.00000000E+00
  0.00000000E+00  0.00000000E+00  0.00000000E+00
  0.00000000E+00  0.00000000E+00  0.00000000E+00
  0.00000000E+00  0.00000000E+00  0.00000000E+00
  0.00000000E+00  0.00000000E+00  0.00000000E+00
  0.00000000E+00  0.00000000E+00  0.00000000E+00
  0.00000000E+00  0.00000000E+00  0.00000000E+00
  0.00000000E+00  0.00000000E+00  0.00000000E+00
  0.00000000E+00  0.00000000E+00  0.00000000E+00
  0.00000000E+00  0.00000000E+00  0.00000000E+00
  0.00000000E+00  0.00000000E+00  0.00000000E+00
  0.00000000E+00  0.00000000E+00  0.00000000E+00
  0.00000000E+00  0.00000000E+00  0.00000000E+00
  0.00000000E+00  0.00000000E+00  0.00000000E+00
  0.00000000E+00  0.00000000E+00  0.00000000E+00
  0.00000000E+00  0.00000000E+00  0.00000000E+00
  0.00000000E+00  0.00000000E+00  0.00000000E+00
  0.00000000E+00  0.00000000E+00  0.00000000E+00
  0.00000000E+00  0.00000000E+00  0.00000000E+00
  0.00000000E+00  0.00000000E+00  0.00000000E+00
  0.00000000E+00  0.00000000E+00  0.00000000E+00
  0.00000000E+00  0.00000000E+00  0.00000000E+00
  0.00000000E+00  0.00000000E+00  0.00000000E+00
  0.00000000E+00  0.00000000E+00  0.00000000E+00
  0.00000000E+00  0.00000000E+00  0.00000000E+00
  0.00000000E+00  0.00000000E+00  0.00000000E+00
  0.00000000E+00  0.00000000E+00  0.00000000E+00
  0.00000000E+00  0.00000000E+00  0.00000000E+00
  0.00000000E+00  0.00000000E+00  0.00000000E+00
  0.00000000E+00  0.00000000E+00  0.00000000E+00
  0.00000000E+00  0.00000000E+00  0.00000000E+00
  0.00000000E+00  0.00000000E+00  0.00000000E+00
  0.00000000E+00  0.00000000E+00  0.00000000E+00
  0.00000000E+00  0.00000000E+00  0.00000000E+00
  0.00000000E+00  0.00000000E+00  0.00000000E+00
  0.00000000E+00  0.00000000E+00  0.00000000E+00
  0.00000000E+00  0.00000000E+00  0.00000000E+00
  0.00000000E+00  0.00000000E+00  0.00000000E+00
  0.00000000E+00  0.00000000E+00  0.00000000E+00
  0.00000000E+00  0.00000000E+00  0.00000000E+00
  0.00000000E+00  0.00000000E+00  0.00000000E+00
  0.00000000E+00  0.00000000E+00  0.00000000E+00
  0.00000000E+00  0.00000000E+00  0.00000000E+00
  0.00000000E+00  0.00000000E+00  0.00000000E+00
  0.00000000E+00  0.00000000E+00  0.00000000E+00
  0.00000000E+00  0.00000000E+00  0.00000000E+00
  0.00000000E+00  0.00000000E+00  0.00000000E+00
  0.00000000E+00  0.00000000E+00  0.00000000E+00
  0.00000000E+00  0.00000000E+00  0.00000000E+00
  0.00000000E+00  0.00000000E+00  0.00000000E+00
  0.00000000E+00  0.00000000E+00  0.00000000E+00
  0.00000000E+00  0.00000000E+00  0.00000000E+00
  0.00000000E+00  0.00000000E+00  0.00000000E+00
  0.00000000E+00  0.00000000E+00  0.00000000E+00
  0.00000000E+00  0.00000000E+00  0.00000000E+00
  0.00000000E+00  0.00000000E+00  0.00000000E+00
