In24 Ga30 Ag54 Se108                    
   1.0000000000000000     
    16.6231594279308830   -0.0003127101753156   -7.7009013740565448
    -3.5780003202225155   16.2250542716804169   -7.7147477451852469
    -0.0088753958520833   -0.0051436594628519   21.7367330642275576
   In   Ga   Ag   Se
    24    30    54   108
Direct
  0.5009626587751939  0.5003573594177411  0.0006164030858855
  0.5028446150023456  0.8323344552480663  0.9977086070734629
  0.8333400623812039  0.8334057111227011  0.0033723016424716
  0.1647409796987844  0.1675205248400715  0.0020888350870578
  0.5017688380474823  0.1671089434204802  0.9982459004553519
  0.1696266588084541  0.5038006946763076  0.3358192182044561
  0.4973111695346546  0.5012074296996403  0.3361666790157045
  0.1646833435243522  0.1672179952605788  0.3320426637114409
  0.4959405638093628  0.1661808688557187  0.3334430136869742
  0.4982831790937610  0.5001705240907484  0.6644840102676071
  0.8325309365020104  0.4972265278569949  0.6662576659721964
  0.8316376477648433  0.8355975487585212  0.6641315535472216
  0.5892444606035667  0.4184632316507262  0.1708762755122706
  0.9139558089184661  0.4176109346082839  0.1648614420608183
  0.5860290990758941  0.7513848291146488  0.1713863555336985
  0.5884059925859901  0.0835946989489074  0.1700685409314104
  0.9187640569692945  0.4156006344902750  0.4985496293712970
  0.2504362538372149  0.0795709720498365  0.5013296163592500
  0.5810001626140959  0.0791395128701993  0.5011289381886499
  0.2456872636775103  0.4162227366855049  0.8303436096243928
  0.5850657737583163  0.4109402826250417  0.8321305956234326
  0.2457517167248398  0.7511263611054915  0.8312980426485410
  0.9197753549237575  0.7504356843397915  0.8353881286084288
  0.2461681393332213  0.0816288699226533  0.8295565309803692
  0.1632534211699266  0.4984910057058016  0.0008634798616072
  0.8337746363329046  0.5032627779280432  0.9999211649503223
  0.1676368862733213  0.8352067177153017  0.0044484399303286
  0.8333037629949516  0.1627488080762873  0.9966006009753983
  0.8361276930302139  0.5063829995769211  0.3367754304789727
  0.1660798511613990  0.8299282774271646  0.3314122727429449
  0.4984068410998646  0.8286409415801685  0.3328830247102772
  0.8391929061496342  0.8358388523670754  0.3370970797916186
  0.8396315057613606  0.1654822904664783  0.3343835775709110
  0.1672602496461053  0.4999854311533198  0.6645183556884504
  0.1636116217497801  0.8333381421866051  0.6617190133209405
  0.5000311776828141  0.8336714281691542  0.6656815512221286
  0.1621681962777117  0.1626018502986852  0.6640916718515157
  0.5023703057065632  0.1638529693308755  0.6680943347685897
  0.8360075664639623  0.1668639218796173  0.6672494358522414
  0.2475738497966731  0.4185491489833097  0.1655538228010798
  0.2479143134642356  0.7484620329154339  0.1663048464508279
  0.9184419672745463  0.7488318649489827  0.1701844404511093
  0.2467414138965580  0.0797509918597967  0.1653020892298471
  0.9160360920676780  0.0862536217405037  0.1659333975708819
  0.2480276529947929  0.4187422754821526  0.5012457459041855
  0.5833399793686667  0.4156730792136045  0.5004947585145203
  0.2527266411230542  0.7545803617841074  0.5025355017852391
  0.5814535622354740  0.7552609386180222  0.4997115110453052
  0.9188478186843199  0.7491413746999029  0.4983941661047311
  0.9180654130413544  0.0830094386309597  0.5001139310892384
  0.9153655606603266  0.4156148410275549  0.8354323970447624
  0.5846321461823862  0.7500534897679429  0.8295797597389054
  0.5846837177612798  0.0803094347613680  0.8305139737704863
  0.9158138586499902  0.0850653274030577  0.8322044140595182
  0.9966667028337710  0.3339034094274425  0.9968868255145580
  0.3338257841026362  0.3386458520862732  0.0027242265535392
  0.6701216536896197  0.3278297896236921  0.9950137234885617
  0.0083981935948572  0.6634362247897840  0.0054006174097978
  0.3288963527175568  0.6670938887588918  0.0023952997004884
  0.6690738234024209  0.6698580458442223  0.9991661657352324
  0.9954718677506875  0.0018322399375137  0.0003116441740545
  0.3349987419561700  0.9990418562494341  0.0041979795308933
  0.6667075264089704  0.0029447961276858  0.9958481676556232
  0.9978015687850998  0.3337077970250633  0.3319337024049958
  0.3303471196065786  0.3313353410618447  0.3316329393028141
  0.6736171259635029  0.3364530092312563  0.3394359049826221
  0.0042129157551187  0.6724949619198171  0.3393454655963808
  0.3298756006784771  0.6724488229475156  0.3344925104791017
  0.6726307763462245  0.6737319179027423  0.3412480453413664
  0.9960353757313030  0.9941171386450520  0.3291635250315608
  0.3339888691057595  0.9909553312403858  0.3269833421782664
  0.6744735572201037  0.0052927436078747  0.3402895746898409
  0.0003732052492182  0.3285399259250354  0.6659337936897813
  0.3286142123699776  0.3285906273102057  0.6620209192888424
  0.6727722632048980  0.3318938395693891  0.6671226364855372
  0.9991424292931015  0.6678243797413188  0.6615061944381608
  0.3281421476090074  0.6687902867685267  0.6639952209728648
  0.6621919851592466  0.6666746900587412  0.6615772841420977
  0.9949616962633456  0.9979977202329167  0.6615616348889475
  0.3387108455308763  0.0035810694633014  0.6692637283798106
  0.6686467771598217  0.0022124680168290  0.6695197921074225
  0.0826048144347524  0.5825543187398523  0.1623879911437172
  0.4089424368101007  0.5873791579936736  0.1685472000634505
  0.7579513913481648  0.5869348727221038  0.1712605070022946
  0.0825390725505812  0.9150802097604114  0.1685388722176384
  0.4124841435571440  0.9159423669623052  0.1674097251368849
  0.7557718989619175  0.9199151972840411  0.1751117397309017
  0.0809995405272232  0.2524877598989832  0.1640445389968903
  0.4131898254963602  0.2521964045583331  0.1666245218989815
  0.7575380899906676  0.2467305806927058  0.1708427410171183
  0.0869739024788316  0.5858187933705636  0.5005394641515721
  0.4221064427639760  0.5875976926035804  0.5039569646404303
  0.7469074760376131  0.5849172558442959  0.4995666169161481
  0.0809173418477727  0.9136495263396824  0.4979764657480601
  0.4106909277392035  0.9123202102621875  0.4983008024618130
  0.7504233102455302  0.9165822819823148  0.4955845811042465
  0.0868885695878276  0.2509451074039717  0.5042879073634765
  0.4162675676227892  0.2555654653327082  0.5046972686693323
  0.7462081467579793  0.2425457680200793  0.4956538560318435
  0.0831358189588300  0.5816001273727451  0.8357515188175171
  0.4166119512836346  0.5832716035016929  0.8307813795998626
  0.7494646900534008  0.5870500624290571  0.8359349408348109
  0.0811548251869709  0.9158467563036155  0.8340745973694226
  0.4151397623122719  0.9093803660275057  0.8231837104448800
  0.7486579987104420  0.9194910979941397  0.8327950268319881
  0.0798696127588983  0.2531322866954255  0.8320355241869350
  0.4093690162801167  0.2437063912822950  0.8250184778730585
  0.7535422755301795  0.2473758502627561  0.8338543175392346
  0.1302688239932763  0.4564992296962274  0.0821706001702225
  0.4624620826281998  0.4636428226470599  0.0895717761483681
  0.7921736431515001  0.4605735277320662  0.0760141083149719
  0.1345929675521944  0.7925835529846097  0.0860001009681994
  0.4606119155105404  0.7915765671846771  0.0832586540472704
  0.8017859344722424  0.7917901592716632  0.0936679816746420
  0.1302777248535776  0.1224857215352344  0.0888740711006051
  0.4623926515017445  0.1265455721685314  0.0854518378281028
  0.8008211703723802  0.1241606364444081  0.0807082258258873
  0.1307699927905119  0.4560379784442929  0.4195629713894249
  0.4633914687898226  0.4549110453376599  0.4230391100018664
  0.7979756228496697  0.4651701401762551  0.4153088031763232
  0.1376791664305870  0.7940309299081250  0.4185204192259633
  0.4646526685430175  0.7925316760040175  0.4165718189722227
  0.8061632564612324  0.7942713471049530  0.4187413098214279
  0.1251303322652006  0.1220846847763610  0.4161716423149429
  0.4553809936845994  0.1240916880318395  0.4185387114985346
  0.8062165759188318  0.1259413088686259  0.4174573374157049
  0.1246152301775254  0.4598919812663880  0.7418843879526875
  0.4590792699965291  0.4541674194468115  0.7481674139371250
  0.8000120743108070  0.4591520487951897  0.7581165970366186
  0.1254116612298830  0.7956704784283417  0.7424376922228291
  0.4673024087237749  0.7862142012491589  0.7444030253714615
  0.7932360264460314  0.7916880728563598  0.7495450532802579
  0.1227170447962607  0.1270396501741331  0.7445260961562425
  0.4705541682095813  0.1252602996707282  0.7517588474570829
  0.8013289159492345  0.1240410670534828  0.7480315422068387
  0.2768271068435268  0.6234180244995002  0.0821277800798228
  0.6276014094311364  0.6265204204880135  0.0848221563573048
  0.9489740552597823  0.6258490527768714  0.0848614045041813
  0.2827598828651077  0.9579117148897538  0.0849343974838490
  0.6302133285137685  0.9585307191914509  0.0836399281260967
  0.9554721704355629  0.9655080182501266  0.0899104280555960
  0.2864191236872742  0.2999300547752384  0.0871744877623470
  0.6306898963681817  0.2914921496621403  0.0855828525999129
  0.9475251025703031  0.2852098060473409  0.0757867121483784
  0.2920671830096140  0.6353593081483524  0.4248987362768020
  0.6190032005563069  0.6340421514396724  0.4223757489421445
  0.9537475298136826  0.6267230816964116  0.4186058731153182
  0.2825745082163067  0.9492408502818890  0.4089524043626938
  0.6138296971611794  0.9496397794644054  0.4093220893515053
  0.9521058465054111  0.9599367491177233  0.4183538565294782
  0.2871615114015142  0.2995022522579873  0.4226531231942516
  0.6208610837139119  0.2962015220086371  0.4205343553542065
  0.9558171829204767  0.2846110243250095  0.4134795739141097
  0.2837033325693028  0.6202285667148359  0.7453512349314551
  0.6229550849005889  0.6302699930989064  0.7515961622172966
  0.9584091261860266  0.6243152490418638  0.7471177451711739
  0.2822172394244831  0.9509817959183948  0.7422742435032674
  0.6153025625637554  0.9566869597140766  0.7478548819039830
  0.9556014292694357  0.9659876568094461  0.7543575450277231
  0.2784276844640274  0.2827667064594195  0.7415768384158170
  0.6208712524851379  0.2811484457954236  0.7438403257607433
  0.9473110690473661  0.2933876887675453  0.7502666524391515
  0.2087175745734413  0.3791794086863831  0.2448568683200207
  0.5437695038827144  0.3766747175081520  0.2538396120607587
  0.8734244375365279  0.3870311080319482  0.2563263188887888
  0.2052507937051544  0.7153743021746024  0.2473104456070274
  0.5399808004347832  0.7117128739613179  0.2557232428048266
  0.8801364453906899  0.7201264640921394  0.2554715077241951
  0.2104157895718402  0.0433327051042198  0.2469600892003285
  0.5429707958366734  0.0409577107145154  0.2526163345981232
  0.8777265082223451  0.0517367106018298  0.2490683511908713
  0.2080959674158365  0.3839144441049385  0.5831552124405945
  0.5478393985349967  0.3779603836906062  0.5820772173723512
  0.8732671124435001  0.3717741171296893  0.5801417373768345
  0.2070299611919637  0.7197259778567755  0.5811848610481789
  0.5423371076478531  0.7217042710578383  0.5825291255313303
  0.8747055388392084  0.7122672614874830  0.5759961023087925
  0.2057835158093937  0.0453062928377008  0.5888536141627085
  0.5366652640131946  0.0432776231988043  0.5875575389621090
  0.8731518328797989  0.0509950453384747  0.5808485671033665
  0.2048905258112370  0.3832957963976042  0.9210301272596055
  0.5385265530756698  0.3704895579455183  0.9147819570353590
  0.8729659537107395  0.3852237133619241  0.9177247621896072
  0.2043237656989163  0.7176620937526863  0.9216428649231574
  0.5447291957107510  0.7094028659555178  0.9079828647897941
  0.8808529552927951  0.7096155412198470  0.9219932707274907
  0.2091860714554485  0.0432110451131109  0.9183013584674313
  0.5400225573478821  0.0418064610404087  0.9069215940950386
  0.8745001204990857  0.0490234814486143  0.9134580749538088
  0.0417429656966846  0.5431178036189976  0.2501655032868300
  0.3654460364832630  0.5367761849198516  0.2489902519537139
  0.7176149014686217  0.5449910086101042  0.2580464514816541
  0.0419738807132433  0.8633231652709554  0.2503936488314196
  0.3749880772093235  0.8586487392147717  0.2474764021028193
  0.7181996596399927  0.8736192592780228  0.2602068697125688
  0.0346091768996004  0.2035122913434790  0.2440802317454498
  0.3647136140075489  0.1984924980888607  0.2431046974176141
  0.7197274106726894  0.2068128094818888  0.2597332595270174
  0.0492283363610682  0.5389553412490429  0.5860333478229691
  0.3667810692911857  0.5361912849672663  0.5783367912980211
  0.7015120030221240  0.5339721576914869  0.5788203169165484
  0.0395038456343499  0.8662714893141867  0.5814217395308177
  0.3762735677117064  0.8681788497121019  0.5863082295421407
  0.7011662521958044  0.8717141390886169  0.5767856999196468
  0.0413466698784646  0.1974525689823068  0.5824362292786631
  0.3825104844611715  0.2018905269105531  0.5888281831874593
  0.7142471350656550  0.2002764485562025  0.5858376286106761
  0.0406295676870059  0.5293517032520754  0.9162628454662425
  0.3735049272393312  0.5421418131446956  0.9162890712146847
  0.7127281732250594  0.5376666251221422  0.9198614494600292
  0.0492614560155289  0.8749506178813817  0.9253044000250910
  0.3756009604501642  0.8746225927656539  0.9140762167370511
  0.7036161561827896  0.8673904676024904  0.9121549752994227
  0.0347180333708152  0.2018590861962153  0.9119029388822639
  0.3725883752593759  0.2088012715643686  0.9162913237087054
  0.7095145138451002  0.1941050809510614  0.9134741344285615

  0.00000000E+00  0.00000000E+00  0.00000000E+00
  0.00000000E+00  0.00000000E+00  0.00000000E+00
  0.00000000E+00  0.00000000E+00  0.00000000E+00
  0.00000000E+00  0.00000000E+00  0.00000000E+00
  0.00000000E+00  0.00000000E+00  0.00000000E+00
  0.00000000E+00  0.00000000E+00  0.00000000E+00
  0.00000000E+00  0.00000000E+00  0.00000000E+00
  0.00000000E+00  0.00000000E+00  0.00000000E+00
  0.00000000E+00  0.00000000E+00  0.00000000E+00
  0.00000000E+00  0.00000000E+00  0.00000000E+00
  0.00000000E+00  0.00000000E+00  0.00000000E+00
  0.00000000E+00  0.00000000E+00  0.00000000E+00
  0.00000000E+00  0.00000000E+00  0.00000000E+00
  0.00000000E+00  0.00000000E+00  0.00000000E+00
  0.00000000E+00  0.00000000E+00  0.00000000E+00
  0.00000000E+00  0.00000000E+00  0.00000000E+00
  0.00000000E+00  0.00000000E+00  0.00000000E+00
  0.00000000E+00  0.00000000E+00  0.00000000E+00
  0.00000000E+00  0.00000000E+00  0.00000000E+00
  0.00000000E+00  0.00000000E+00  0.00000000E+00
  0.00000000E+00  0.00000000E+00  0.00000000E+00
  0.00000000E+00  0.00000000E+00  0.00000000E+00
  0.00000000E+00  0.00000000E+00  0.00000000E+00
  0.00000000E+00  0.00000000E+00  0.00000000E+00
  0.00000000E+00  0.00000000E+00  0.00000000E+00
  0.00000000E+00  0.00000000E+00  0.00000000E+00
  0.00000000E+00  0.00000000E+00  0.00000000E+00
  0.00000000E+00  0.00000000E+00  0.00000000E+00
  0.00000000E+00  0.00000000E+00  0.00000000E+00
  0.00000000E+00  0.00000000E+00  0.00000000E+00
  0.00000000E+00  0.00000000E+00  0.00000000E+00
  0.00000000E+00  0.00000000E+00  0.00000000E+00
  0.00000000E+00  0.00000000E+00  0.00000000E+00
  0.00000000E+00  0.00000000E+00  0.00000000E+00
  0.00000000E+00  0.00000000E+00  0.00000000E+00
  0.00000000E+00  0.00000000E+00  0.00000000E+00
  0.00000000E+00  0.00000000E+00  0.00000000E+00
  0.00000000E+00  0.00000000E+00  0.00000000E+00
  0.00000000E+00  0.00000000E+00  0.00000000E+00
  0.00000000E+00  0.00000000E+00  0.00000000E+00
  0.00000000E+00  0.00000000E+00  0.00000000E+00
  0.00000000E+00  0.00000000E+00  0.00000000E+00
  0.00000000E+00  0.00000000E+00  0.00000000E+00
  0.00000000E+00  0.00000000E+00  0.00000000E+00
  0.00000000E+00  0.00000000E+00  0.00000000E+00
  0.00000000E+00  0.00000000E+00  0.00000000E+00
  0.00000000E+00  0.00000000E+00  0.00000000E+00
  0.00000000E+00  0.00000000E+00  0.00000000E+00
  0.00000000E+00  0.00000000E+00  0.00000000E+00
  0.00000000E+00  0.00000000E+00  0.00000000E+00
  0.00000000E+00  0.00000000E+00  0.00000000E+00
  0.00000000E+00  0.00000000E+00  0.00000000E+00
  0.00000000E+00  0.00000000E+00  0.00000000E+00
  0.00000000E+00  0.00000000E+00  0.00000000E+00
  0.00000000E+00  0.00000000E+00  0.00000000E+00
  0.00000000E+00  0.00000000E+00  0.00000000E+00
  0.00000000E+00  0.00000000E+00  0.00000000E+00
  0.00000000E+00  0.00000000E+00  0.00000000E+00
  0.00000000E+00  0.00000000E+00  0.00000000E+00
  0.00000000E+00  0.00000000E+00  0.00000000E+00
  0.00000000E+00  0.00000000E+00  0.00000000E+00
  0.00000000E+00  0.00000000E+00  0.00000000E+00
  0.00000000E+00  0.00000000E+00  0.00000000E+00
  0.00000000E+00  0.00000000E+00  0.00000000E+00
  0.00000000E+00  0.00000000E+00  0.00000000E+00
  0.00000000E+00  0.00000000E+00  0.00000000E+00
  0.00000000E+00  0.00000000E+00  0.00000000E+00
  0.00000000E+00  0.00000000E+00  0.00000000E+00
  0.00000000E+00  0.00000000E+00  0.00000000E+00
  0.00000000E+00  0.00000000E+00  0.00000000E+00
  0.00000000E+00  0.00000000E+00  0.00000000E+00
  0.00000000E+00  0.00000000E+00  0.00000000E+00
  0.00000000E+00  0.00000000E+00  0.00000000E+00
  0.00000000E+00  0.00000000E+00  0.00000000E+00
  0.00000000E+00  0.00000000E+00  0.00000000E+00
  0.00000000E+00  0.00000000E+00  0.00000000E+00
  0.00000000E+00  0.00000000E+00  0.00000000E+00
  0.00000000E+00  0.00000000E+00  0.00000000E+00
  0.00000000E+00  0.00000000E+00  0.00000000E+00
  0.00000000E+00  0.00000000E+00  0.00000000E+00
  0.00000000E+00  0.00000000E+00  0.00000000E+00
  0.00000000E+00  0.00000000E+00  0.00000000E+00
  0.00000000E+00  0.00000000E+00  0.00000000E+00
  0.00000000E+00  0.00000000E+00  0.00000000E+00
  0.00000000E+00  0.00000000E+00  0.00000000E+00
  0.00000000E+00  0.00000000E+00  0.00000000E+00
  0.00000000E+00  0.00000000E+00  0.00000000E+00
  0.00000000E+00  0.00000000E+00  0.00000000E+00
  0.00000000E+00  0.00000000E+00  0.00000000E+00
  0.00000000E+00  0.00000000E+00  0.00000000E+00
  0.00000000E+00  0.00000000E+00  0.00000000E+00
  0.00000000E+00  0.00000000E+00  0.00000000E+00
  0.00000000E+00  0.00000000E+00  0.00000000E+00
  0.00000000E+00  0.00000000E+00  0.00000000E+00
  0.00000000E+00  0.00000000E+00  0.00000000E+00
  0.00000000E+00  0.00000000E+00  0.00000000E+00
  0.00000000E+00  0.00000000E+00  0.00000000E+00
  0.00000000E+00  0.00000000E+00  0.00000000E+00
  0.00000000E+00  0.00000000E+00  0.00000000E+00
  0.00000000E+00  0.00000000E+00  0.00000000E+00
  0.00000000E+00  0.00000000E+00  0.00000000E+00
  0.00000000E+00  0.00000000E+00  0.00000000E+00
  0.00000000E+00  0.00000000E+00  0.00000000E+00
  0.00000000E+00  0.00000000E+00  0.00000000E+00
  0.00000000E+00  0.00000000E+00  0.00000000E+00
  0.00000000E+00  0.00000000E+00  0.00000000E+00
  0.00000000E+00  0.00000000E+00  0.00000000E+00
  0.00000000E+00  0.00000000E+00  0.00000000E+00
  0.00000000E+00  0.00000000E+00  0.00000000E+00
  0.00000000E+00  0.00000000E+00  0.00000000E+00
  0.00000000E+00  0.00000000E+00  0.00000000E+00
  0.00000000E+00  0.00000000E+00  0.00000000E+00
  0.00000000E+00  0.00000000E+00  0.00000000E+00
  0.00000000E+00  0.00000000E+00  0.00000000E+00
  0.00000000E+00  0.00000000E+00  0.00000000E+00
  0.00000000E+00  0.00000000E+00  0.00000000E+00
  0.00000000E+00  0.00000000E+00  0.00000000E+00
  0.00000000E+00  0.00000000E+00  0.00000000E+00
  0.00000000E+00  0.00000000E+00  0.00000000E+00
  0.00000000E+00  0.00000000E+00  0.00000000E+00
  0.00000000E+00  0.00000000E+00  0.00000000E+00
  0.00000000E+00  0.00000000E+00  0.00000000E+00
  0.00000000E+00  0.00000000E+00  0.00000000E+00
  0.00000000E+00  0.00000000E+00  0.00000000E+00
  0.00000000E+00  0.00000000E+00  0.00000000E+00
  0.00000000E+00  0.00000000E+00  0.00000000E+00
  0.00000000E+00  0.00000000E+00  0.00000000E+00
  0.00000000E+00  0.00000000E+00  0.00000000E+00
  0.00000000E+00  0.00000000E+00  0.00000000E+00
  0.00000000E+00  0.00000000E+00  0.00000000E+00
  0.00000000E+00  0.00000000E+00  0.00000000E+00
  0.00000000E+00  0.00000000E+00  0.00000000E+00
  0.00000000E+00  0.00000000E+00  0.00000000E+00
  0.00000000E+00  0.00000000E+00  0.00000000E+00
  0.00000000E+00  0.00000000E+00  0.00000000E+00
  0.00000000E+00  0.00000000E+00  0.00000000E+00
  0.00000000E+00  0.00000000E+00  0.00000000E+00
  0.00000000E+00  0.00000000E+00  0.00000000E+00
  0.00000000E+00  0.00000000E+00  0.00000000E+00
  0.00000000E+00  0.00000000E+00  0.00000000E+00
  0.00000000E+00  0.00000000E+00  0.00000000E+00
  0.00000000E+00  0.00000000E+00  0.00000000E+00
  0.00000000E+00  0.00000000E+00  0.00000000E+00
  0.00000000E+00  0.00000000E+00  0.00000000E+00
  0.00000000E+00  0.00000000E+00  0.00000000E+00
  0.00000000E+00  0.00000000E+00  0.00000000E+00
  0.00000000E+00  0.00000000E+00  0.00000000E+00
  0.00000000E+00  0.00000000E+00  0.00000000E+00
  0.00000000E+00  0.00000000E+00  0.00000000E+00
  0.00000000E+00  0.00000000E+00  0.00000000E+00
  0.00000000E+00  0.00000000E+00  0.00000000E+00
  0.00000000E+00  0.00000000E+00  0.00000000E+00
  0.00000000E+00  0.00000000E+00  0.00000000E+00
  0.00000000E+00  0.00000000E+00  0.00000000E+00
  0.00000000E+00  0.00000000E+00  0.00000000E+00
  0.00000000E+00  0.00000000E+00  0.00000000E+00
  0.00000000E+00  0.00000000E+00  0.00000000E+00
  0.00000000E+00  0.00000000E+00  0.00000000E+00
  0.00000000E+00  0.00000000E+00  0.00000000E+00
  0.00000000E+00  0.00000000E+00  0.00000000E+00
  0.00000000E+00  0.00000000E+00  0.00000000E+00
  0.00000000E+00  0.00000000E+00  0.00000000E+00
  0.00000000E+00  0.00000000E+00  0.00000000E+00
  0.00000000E+00  0.00000000E+00  0.00000000E+00
  0.00000000E+00  0.00000000E+00  0.00000000E+00
  0.00000000E+00  0.00000000E+00  0.00000000E+00
  0.00000000E+00  0.00000000E+00  0.00000000E+00
  0.00000000E+00  0.00000000E+00  0.00000000E+00
  0.00000000E+00  0.00000000E+00  0.00000000E+00
  0.00000000E+00  0.00000000E+00  0.00000000E+00
  0.00000000E+00  0.00000000E+00  0.00000000E+00
  0.00000000E+00  0.00000000E+00  0.00000000E+00
  0.00000000E+00  0.00000000E+00  0.00000000E+00
  0.00000000E+00  0.00000000E+00  0.00000000E+00
  0.00000000E+00  0.00000000E+00  0.00000000E+00
  0.00000000E+00  0.00000000E+00  0.00000000E+00
  0.00000000E+00  0.00000000E+00  0.00000000E+00
  0.00000000E+00  0.00000000E+00  0.00000000E+00
  0.00000000E+00  0.00000000E+00  0.00000000E+00
  0.00000000E+00  0.00000000E+00  0.00000000E+00
  0.00000000E+00  0.00000000E+00  0.00000000E+00
  0.00000000E+00  0.00000000E+00  0.00000000E+00
  0.00000000E+00  0.00000000E+00  0.00000000E+00
  0.00000000E+00  0.00000000E+00  0.00000000E+00
  0.00000000E+00  0.00000000E+00  0.00000000E+00
  0.00000000E+00  0.00000000E+00  0.00000000E+00
  0.00000000E+00  0.00000000E+00  0.00000000E+00
  0.00000000E+00  0.00000000E+00  0.00000000E+00
  0.00000000E+00  0.00000000E+00  0.00000000E+00
  0.00000000E+00  0.00000000E+00  0.00000000E+00
  0.00000000E+00  0.00000000E+00  0.00000000E+00
  0.00000000E+00  0.00000000E+00  0.00000000E+00
  0.00000000E+00  0.00000000E+00  0.00000000E+00
  0.00000000E+00  0.00000000E+00  0.00000000E+00
  0.00000000E+00  0.00000000E+00  0.00000000E+00
  0.00000000E+00  0.00000000E+00  0.00000000E+00
  0.00000000E+00  0.00000000E+00  0.00000000E+00
  0.00000000E+00  0.00000000E+00  0.00000000E+00
  0.00000000E+00  0.00000000E+00  0.00000000E+00
  0.00000000E+00  0.00000000E+00  0.00000000E+00
  0.00000000E+00  0.00000000E+00  0.00000000E+00
  0.00000000E+00  0.00000000E+00  0.00000000E+00
  0.00000000E+00  0.00000000E+00  0.00000000E+00
  0.00000000E+00  0.00000000E+00  0.00000000E+00
  0.00000000E+00  0.00000000E+00  0.00000000E+00
  0.00000000E+00  0.00000000E+00  0.00000000E+00
  0.00000000E+00  0.00000000E+00  0.00000000E+00
  0.00000000E+00  0.00000000E+00  0.00000000E+00
  0.00000000E+00  0.00000000E+00  0.00000000E+00
  0.00000000E+00  0.00000000E+00  0.00000000E+00
  0.00000000E+00  0.00000000E+00  0.00000000E+00
  0.00000000E+00  0.00000000E+00  0.00000000E+00
  0.00000000E+00  0.00000000E+00  0.00000000E+00
  0.00000000E+00  0.00000000E+00  0.00000000E+00
  0.00000000E+00  0.00000000E+00  0.00000000E+00
  0.00000000E+00  0.00000000E+00  0.00000000E+00
