In42 Ga12 Cu30 Ag24 Se108               
   1.0000000000000000     
    16.3050554810940191   -0.0003313260875843   -7.3436946931521607
    -3.3006019216463209   15.9532640240470585   -7.3292107408598266
     0.0248327247629053    0.0312551559277926   21.8492210403844638
   In   Ga   Cu   Ag   Se
    42    12    30    24   108
Direct
  0.1663315447077451  0.4987567199708351  0.0002129458980420
  0.5015311611197575  0.4980646344541952  0.9974868752302939
  0.8263416085334114  0.4956894443304449  0.9971328819467047
  0.1639211459040411  0.8412918401072389  0.0008748366396389
  0.4998410309854862  0.1661530699411742  0.9981981558804378
  0.8289180143404167  0.1624399228642588  0.9971227549171005
  0.1614805262916974  0.4989184066560313  0.3341134276018067
  0.5070810205399852  0.4988723567389712  0.3337503898075838
  0.8340467966786917  0.5028139327597643  0.3364810556891911
  0.1674652286453906  0.8434491826658927  0.3386615500707180
  0.5042863201660381  0.8349294906247735  0.3343415152429898
  0.8318370191778115  0.8322558440855303  0.3326609027375014
  0.1634009067229059  0.1648997041926705  0.3342400034827975
  0.8399417168768366  0.1670377749578549  0.3372092108225857
  0.4998535804140545  0.4945712559549236  0.6698840640223267
  0.8324537650205883  0.4979728331224180  0.6651307286983155
  0.1600363425947862  0.8348289985423634  0.6659699027089587
  0.8372503085381453  0.8372453612057527  0.6680104007648424
  0.8321126611839205  0.1651904036813576  0.6662690013149515
  0.2507924478817571  0.4135915889190116  0.1663985558795247
  0.5831811413100780  0.4166201357025940  0.1642469339955284
  0.9128704933651761  0.4175666365034303  0.1675360027870667
  0.2448975530401469  0.7514552840924509  0.1667038326831332
  0.9180866803106866  0.7534634726567759  0.1648493895688645
  0.5801916702012093  0.0801013131854020  0.1630878450871478
  0.9158586743474615  0.0779387884521370  0.1653150471018208
  0.2452319837873276  0.4154290244988488  0.5029145003484956
  0.5862919363332750  0.4117544197792640  0.5003366791426416
  0.9220055838528438  0.4181813127709901  0.5046194020322474
  0.2518157792557218  0.7553317424683073  0.5048491535724864
  0.5874401177979038  0.7567756847363114  0.5017666057148986
  0.9165179846911187  0.7519795053958944  0.5015495253646733
  0.5843292307564738  0.0875119829460544  0.5021014051691282
  0.9209857470462524  0.0832933161970217  0.5029126994632449
  0.2472731162858821  0.4122853873416048  0.8290294430899507
  0.9109286059919057  0.4132850297357180  0.8298676022291573
  0.2478463433994804  0.7485136256496858  0.8336767282840327
  0.5856168985604526  0.7529156053019506  0.8334118202156304
  0.9141574468697087  0.7532320286943843  0.8319336520896741
  0.2447532683681857  0.0827508517230200  0.8305501149064725
  0.5861611297054310  0.0829497321498636  0.8300609346257204
  0.9180948478749258  0.0809966494991983  0.8342018681051542
  0.4992982147234244  0.8314722641198102  0.9986312467615761
  0.8344109006024212  0.8352656219059043  0.9950946203966708
  0.1700988625103506  0.1589631445576316  0.0001492915747932
  0.4998568209623855  0.1642055444519386  0.3303866790736976
  0.1668981469894177  0.4966827007510304  0.6674697027072725
  0.5067873297734025  0.8386143426410939  0.6670627519977472
  0.1640364619688484  0.1668236203700104  0.6628122138048624
  0.5000721488254811  0.1681734397157086  0.6672031821883166
  0.5890482355750848  0.7494570799766649  0.1673723818701660
  0.2511814277182012  0.0825990025162255  0.1642626796741240
  0.2504618996511638  0.0870944845421064  0.5068001220338587
  0.5823146331772193  0.4124450445573231  0.8286980954558985
  0.3311296449008339  0.3256900384363846  0.0020247726763429
  0.6693499183595364  0.3332800058487990  0.9955568567599684
  0.0008170943524846  0.9993176126874062  0.9995346950333968
  0.3314909915916431  0.0036205248187002  0.9997746073628733
  0.6659508120953745  0.9930824773556708  0.9948343443902701
  0.0023156920274161  0.3344676271565064  0.3403488679000830
  0.6700391909714227  0.6688977704822463  0.3336682591157469
  0.0090245553029789  0.0039155566385745  0.3405591543015234
  0.9987645463348827  0.3294231362097975  0.6614941205395866
  0.3315625843304488  0.3311153587038334  0.6674637313987262
  0.6699006207088729  0.3337182819350986  0.6728696161288070
  0.0030013313195809  0.6678619480035763  0.6657573341169680
  0.9991146301085365  0.0008220169875202  0.6647046236930336
  0.6666489558158091  0.0033513003320138  0.6682123228186967
  0.0812090705031281  0.5839917171876721  0.1667831818081567
  0.7474070206590255  0.5829347740639221  0.1673637037047513
  0.0772523962679443  0.9209139324433977  0.1647501888887390
  0.4108307695639084  0.2435956199082838  0.1617488859192093
  0.0821807531785552  0.5805153331896022  0.5048982450656041
  0.7527435803839637  0.5890133713973000  0.4991559435151558
  0.0804746663571265  0.9238866132442922  0.5021225572114361
  0.4239536711798308  0.9270378720821952  0.5085649111783468
  0.7542567172853794  0.9160145479669808  0.5032718462014145
  0.0887435110536643  0.2494853133905792  0.5052565073433541
  0.7489195718689885  0.2505876591826990  0.5035523033702063
  0.4161026417278322  0.5769571316818087  0.8283156738527566
  0.7485903849509157  0.5815417895695347  0.8337935811686492
  0.0839514514469357  0.9194523237247836  0.8339036393521297
  0.7494475190802703  0.9203495595991242  0.8353169487468151
  0.7401396345370159  0.2471435095524441  0.8258696581933975
  0.9996942625185241  0.3332155625348463  0.9981444970242137
  0.9948547459948571  0.6708747634822743  0.9999481955267129
  0.3409915600554356  0.6686073949889035  0.0003221734781249
  0.6570591102417822  0.6643675655050529  0.9936042751885878
  0.3375592743537297  0.3257041074120082  0.3310300199960281
  0.6664399732475204  0.3314657699604737  0.3341375147222365
  0.0011805313346471  0.6716938360443834  0.3362430151378177
  0.3331729053014740  0.6723158040179840  0.3332354187199940
  0.3212882583616476  0.0028252280606225  0.3332586680784857
  0.6707018116775174  0.0010350146426106  0.3369586906702011
  0.3309899715067957  0.6701531447805209  0.6712590635836548
  0.6703310623012584  0.6625388608669098  0.6676314198607827
  0.3276360237344491  0.9993532371063054  0.6611391474735697
  0.4238247012389849  0.5843369366156992  0.1659139668501624
  0.4144617334906826  0.9133535306510439  0.1622051658420673
  0.7490782893857713  0.9162851752496834  0.1593104756236841
  0.0823273277847392  0.2391247229567242  0.1636202349278193
  0.7516367991288959  0.2521845121332547  0.1629431576372369
  0.4196140605415550  0.5878906664957881  0.5038566540301517
  0.4188245305160123  0.2455729395348101  0.5049703035785100
  0.0792293375717605  0.5796049428352461  0.8272460056880746
  0.4194116572788289  0.9127653340087463  0.8398090864789367
  0.0848416889840777  0.2480701514545487  0.8327517650021221
  0.4192089184735011  0.2539864948861705  0.8339929139785767
  0.1226485671470385  0.4659815206717255  0.0897682467422527
  0.4481706904040550  0.4467001374887829  0.0735839032767558
  0.7787719666699289  0.4590211556161066  0.0845845253092818
  0.1188354670885161  0.8031105269360879  0.0877221866718614
  0.4722503510855631  0.7923029309159659  0.0855886268992450
  0.7916049069022293  0.7903548483239291  0.0706972562773416
  0.1272628844674699  0.1149467901136276  0.0778396044483571
  0.4484305101226624  0.1244918683158858  0.0806651799902980
  0.7819406273998055  0.1129798103722237  0.0773976255794224
  0.1137029258061730  0.4593054426297911  0.4200421869074802
  0.4606353144175728  0.4583733814455897  0.4180360203584144
  0.7902414576271397  0.4647677031249273  0.4237834499283295
  0.1231781506585179  0.8060733777712557  0.4263888347163842
  0.4565581008780057  0.8050087084853885  0.4236974509567517
  0.7830764103391346  0.7930371307325501  0.4180984098093177
  0.1259147704168626  0.1250619255388230  0.4258431737398283
  0.4573924863381720  0.1241074237485975  0.4087514343080940
  0.7930148260307206  0.1344337065467158  0.4257961842758604
  0.1163421772652100  0.4500410176105305  0.7388592383004919
  0.4528929434329285  0.4503166072805840  0.7534619871457267
  0.7807748028048493  0.4606000956254803  0.7500004837756720
  0.1145573882476612  0.7934746422016303  0.7517997914567971
  0.4621817290165211  0.7959075761514356  0.7433927042087660
  0.7868952306654293  0.8026231404924573  0.7534861489927636
  0.1176976605165478  0.1197248121523771  0.7366346400532464
  0.4593752417180781  0.1262977186782521  0.7447299367384872
  0.7833868480635431  0.1256538733484120  0.7518621705700070
  0.2924641908011125  0.6276587134239549  0.0836382200491244
  0.6310132237971686  0.6276193667150736  0.0908641893060391
  0.9617575539019825  0.6189998954708287  0.0855127775982325
  0.2938296188121825  0.9679192527757579  0.0822364461164966
  0.6184381969939565  0.9523559505379922  0.0693870440712914
  0.9610175741848650  0.9521677680446459  0.0755799086760121
  0.2924893697574049  0.2809342013511866  0.0789638426674131
  0.6282238027007381  0.2947751116114716  0.0743592933651414
  0.9564032150887272  0.2895916454190797  0.0834559855479995
  0.2895656393627348  0.6261257174606527  0.4170670909306153
  0.6372268890869748  0.6293620999387173  0.4168605658080438
  0.9685282074464254  0.6245073233298939  0.4248612983277908
  0.3006136081139203  0.9694074026847304  0.4333284950545320
  0.6369486090936789  0.9590414660471112  0.4267192907257780
  0.9657465073955365  0.9576256164082224  0.4147862060863616
  0.2922574915712204  0.2907009240193403  0.4191965347137767
  0.6261599585092910  0.2788258225698641  0.4159213446672680
  0.9738176028216614  0.2924724948566606  0.4228768052172001
  0.2913458207447519  0.6139844076995971  0.7516504455654527
  0.6308379437118958  0.6206667774108681  0.7549298150188690
  0.9580100575467014  0.6290299205764356  0.7428601163377380
  0.2938195243468940  0.9562238258673048  0.7508599842843537
  0.6332730917663270  0.9546302555546973  0.7467299037364157
  0.9718941392390832  0.9610049072532050  0.7496092515316377
  0.2866596666901842  0.2837614250444886  0.7399841959074251
  0.6230668214560282  0.2899665641749181  0.7468463565236050
  0.9615507562281138  0.2929519979980881  0.7440568925193389
  0.2072777707116700  0.3713520446716316  0.2510790774990497
  0.5329737623404895  0.3616381219219633  0.2404905274633151
  0.8841702469347297  0.3736246628372868  0.2593511176628027
  0.1962006026499097  0.7057407802686555  0.2476702061502607
  0.5542208493003784  0.7094223523771817  0.2508102766423761
  0.8673057269432007  0.7009855701444394  0.2427086419082727
  0.1981857733944565  0.0384846668465215  0.2371064831859115
  0.5412401030198382  0.0443978353559586  0.2536662274312889
  0.8856182930008600  0.0354082144381564  0.2576854619351323
  0.2075456937622562  0.3706789256136460  0.5906432690761392
  0.5514276619911485  0.3698103074903187  0.5904070999593642
  0.8742478563378313  0.3635291502216731  0.5827368127930939
  0.1984295275039116  0.7023428768494853  0.5801582535833134
  0.5453925141610938  0.7169992376742016  0.5891764764228000
  0.8773017976115582  0.7010867805768157  0.5854200004893073
  0.1982813780137320  0.0439808773579813  0.5792431672687997
  0.5433917596090438  0.0451127229811377  0.5909307901984064
  0.8752632409045731  0.0320574045513453  0.5836831066808372
  0.2179479931635981  0.3714582582204358  0.9227367695033877
  0.5540034435274848  0.3744471085545200  0.9152244529860667
  0.8626140008835748  0.3620128643839848  0.9082586805743063
  0.2058557280771183  0.7087773505518911  0.9201014900856990
  0.5256171191334147  0.7066784589720498  0.9093959280413841
  0.8625897096636024  0.7067073335377785  0.9118134077042725
  0.2068341359179371  0.0354423696196164  0.9180037054190606
  0.5506069227730066  0.0390094854788714  0.9189417408857921
  0.8759260499196699  0.0312821536938444  0.9173290953420405
  0.0413257734038623  0.5455973995616503  0.2453719709763931
  0.3781674362122516  0.5431603806351006  0.2509701709305148
  0.7086720709348597  0.5516771067788824  0.2512838923348681
  0.0425798665867916  0.8901546833326108  0.2509007727248189
  0.3739840975469946  0.8777880533094162  0.2518678836368338
  0.7041853792201351  0.8719813983482609  0.2437765665953791
  0.0357858296823892  0.2151701787081706  0.2557243084121268
  0.3778587161571636  0.1996318806487309  0.2431546724925084
  0.7113866342370301  0.2055769842296158  0.2479644721394081
  0.0512848089041427  0.5496413081773071  0.5925112636152434
  0.3752429923247789  0.5408847280211759  0.5860909436414374
  0.7113411289285523  0.5425834434117149  0.5746027584807649
  0.0390419636465040  0.8872301988469005  0.5819189748149256
  0.3875228931209946  0.8785799864804744  0.5851263449986703
  0.7124439370700273  0.8903549180821599  0.5871012864428735
  0.0474480925972003  0.2151424423482027  0.5869169459177144
  0.3725417037463217  0.2081049029246813  0.5911569160384644
  0.7092923477961008  0.2209471348474921  0.5873239155372190
  0.0382254798754076  0.5413183744491761  0.9153074044163887
  0.3767625876806733  0.5405353718984927  0.9083649746985856
  0.7002915566396339  0.5360977780910545  0.9050329568442521
  0.0389591775173272  0.8863931751451446  0.9138427106093729
  0.3760938754024394  0.8796065583643582  0.9287853454215735
  0.7150227103031526  0.8825953998260303  0.9185786799574203
  0.0523238855088053  0.2041712562561742  0.9231812861584956
  0.3705178190153688  0.2138263049944271  0.9178039337150210
  0.7089301327498276  0.2173620051601191  0.9142954564387296

  0.00000000E+00  0.00000000E+00  0.00000000E+00
  0.00000000E+00  0.00000000E+00  0.00000000E+00
  0.00000000E+00  0.00000000E+00  0.00000000E+00
  0.00000000E+00  0.00000000E+00  0.00000000E+00
  0.00000000E+00  0.00000000E+00  0.00000000E+00
  0.00000000E+00  0.00000000E+00  0.00000000E+00
  0.00000000E+00  0.00000000E+00  0.00000000E+00
  0.00000000E+00  0.00000000E+00  0.00000000E+00
  0.00000000E+00  0.00000000E+00  0.00000000E+00
  0.00000000E+00  0.00000000E+00  0.00000000E+00
  0.00000000E+00  0.00000000E+00  0.00000000E+00
  0.00000000E+00  0.00000000E+00  0.00000000E+00
  0.00000000E+00  0.00000000E+00  0.00000000E+00
  0.00000000E+00  0.00000000E+00  0.00000000E+00
  0.00000000E+00  0.00000000E+00  0.00000000E+00
  0.00000000E+00  0.00000000E+00  0.00000000E+00
  0.00000000E+00  0.00000000E+00  0.00000000E+00
  0.00000000E+00  0.00000000E+00  0.00000000E+00
  0.00000000E+00  0.00000000E+00  0.00000000E+00
  0.00000000E+00  0.00000000E+00  0.00000000E+00
  0.00000000E+00  0.00000000E+00  0.00000000E+00
  0.00000000E+00  0.00000000E+00  0.00000000E+00
  0.00000000E+00  0.00000000E+00  0.00000000E+00
  0.00000000E+00  0.00000000E+00  0.00000000E+00
  0.00000000E+00  0.00000000E+00  0.00000000E+00
  0.00000000E+00  0.00000000E+00  0.00000000E+00
  0.00000000E+00  0.00000000E+00  0.00000000E+00
  0.00000000E+00  0.00000000E+00  0.00000000E+00
  0.00000000E+00  0.00000000E+00  0.00000000E+00
  0.00000000E+00  0.00000000E+00  0.00000000E+00
  0.00000000E+00  0.00000000E+00  0.00000000E+00
  0.00000000E+00  0.00000000E+00  0.00000000E+00
  0.00000000E+00  0.00000000E+00  0.00000000E+00
  0.00000000E+00  0.00000000E+00  0.00000000E+00
  0.00000000E+00  0.00000000E+00  0.00000000E+00
  0.00000000E+00  0.00000000E+00  0.00000000E+00
  0.00000000E+00  0.00000000E+00  0.00000000E+00
  0.00000000E+00  0.00000000E+00  0.00000000E+00
  0.00000000E+00  0.00000000E+00  0.00000000E+00
  0.00000000E+00  0.00000000E+00  0.00000000E+00
  0.00000000E+00  0.00000000E+00  0.00000000E+00
  0.00000000E+00  0.00000000E+00  0.00000000E+00
  0.00000000E+00  0.00000000E+00  0.00000000E+00
  0.00000000E+00  0.00000000E+00  0.00000000E+00
  0.00000000E+00  0.00000000E+00  0.00000000E+00
  0.00000000E+00  0.00000000E+00  0.00000000E+00
  0.00000000E+00  0.00000000E+00  0.00000000E+00
  0.00000000E+00  0.00000000E+00  0.00000000E+00
  0.00000000E+00  0.00000000E+00  0.00000000E+00
  0.00000000E+00  0.00000000E+00  0.00000000E+00
  0.00000000E+00  0.00000000E+00  0.00000000E+00
  0.00000000E+00  0.00000000E+00  0.00000000E+00
  0.00000000E+00  0.00000000E+00  0.00000000E+00
  0.00000000E+00  0.00000000E+00  0.00000000E+00
  0.00000000E+00  0.00000000E+00  0.00000000E+00
  0.00000000E+00  0.00000000E+00  0.00000000E+00
  0.00000000E+00  0.00000000E+00  0.00000000E+00
  0.00000000E+00  0.00000000E+00  0.00000000E+00
  0.00000000E+00  0.00000000E+00  0.00000000E+00
  0.00000000E+00  0.00000000E+00  0.00000000E+00
  0.00000000E+00  0.00000000E+00  0.00000000E+00
  0.00000000E+00  0.00000000E+00  0.00000000E+00
  0.00000000E+00  0.00000000E+00  0.00000000E+00
  0.00000000E+00  0.00000000E+00  0.00000000E+00
  0.00000000E+00  0.00000000E+00  0.00000000E+00
  0.00000000E+00  0.00000000E+00  0.00000000E+00
  0.00000000E+00  0.00000000E+00  0.00000000E+00
  0.00000000E+00  0.00000000E+00  0.00000000E+00
  0.00000000E+00  0.00000000E+00  0.00000000E+00
  0.00000000E+00  0.00000000E+00  0.00000000E+00
  0.00000000E+00  0.00000000E+00  0.00000000E+00
  0.00000000E+00  0.00000000E+00  0.00000000E+00
  0.00000000E+00  0.00000000E+00  0.00000000E+00
  0.00000000E+00  0.00000000E+00  0.00000000E+00
  0.00000000E+00  0.00000000E+00  0.00000000E+00
  0.00000000E+00  0.00000000E+00  0.00000000E+00
  0.00000000E+00  0.00000000E+00  0.00000000E+00
  0.00000000E+00  0.00000000E+00  0.00000000E+00
  0.00000000E+00  0.00000000E+00  0.00000000E+00
  0.00000000E+00  0.00000000E+00  0.00000000E+00
  0.00000000E+00  0.00000000E+00  0.00000000E+00
  0.00000000E+00  0.00000000E+00  0.00000000E+00
  0.00000000E+00  0.00000000E+00  0.00000000E+00
  0.00000000E+00  0.00000000E+00  0.00000000E+00
  0.00000000E+00  0.00000000E+00  0.00000000E+00
  0.00000000E+00  0.00000000E+00  0.00000000E+00
  0.00000000E+00  0.00000000E+00  0.00000000E+00
  0.00000000E+00  0.00000000E+00  0.00000000E+00
  0.00000000E+00  0.00000000E+00  0.00000000E+00
  0.00000000E+00  0.00000000E+00  0.00000000E+00
  0.00000000E+00  0.00000000E+00  0.00000000E+00
  0.00000000E+00  0.00000000E+00  0.00000000E+00
  0.00000000E+00  0.00000000E+00  0.00000000E+00
  0.00000000E+00  0.00000000E+00  0.00000000E+00
  0.00000000E+00  0.00000000E+00  0.00000000E+00
  0.00000000E+00  0.00000000E+00  0.00000000E+00
  0.00000000E+00  0.00000000E+00  0.00000000E+00
  0.00000000E+00  0.00000000E+00  0.00000000E+00
  0.00000000E+00  0.00000000E+00  0.00000000E+00
  0.00000000E+00  0.00000000E+00  0.00000000E+00
  0.00000000E+00  0.00000000E+00  0.00000000E+00
  0.00000000E+00  0.00000000E+00  0.00000000E+00
  0.00000000E+00  0.00000000E+00  0.00000000E+00
  0.00000000E+00  0.00000000E+00  0.00000000E+00
  0.00000000E+00  0.00000000E+00  0.00000000E+00
  0.00000000E+00  0.00000000E+00  0.00000000E+00
  0.00000000E+00  0.00000000E+00  0.00000000E+00
  0.00000000E+00  0.00000000E+00  0.00000000E+00
  0.00000000E+00  0.00000000E+00  0.00000000E+00
  0.00000000E+00  0.00000000E+00  0.00000000E+00
  0.00000000E+00  0.00000000E+00  0.00000000E+00
  0.00000000E+00  0.00000000E+00  0.00000000E+00
  0.00000000E+00  0.00000000E+00  0.00000000E+00
  0.00000000E+00  0.00000000E+00  0.00000000E+00
  0.00000000E+00  0.00000000E+00  0.00000000E+00
  0.00000000E+00  0.00000000E+00  0.00000000E+00
  0.00000000E+00  0.00000000E+00  0.00000000E+00
  0.00000000E+00  0.00000000E+00  0.00000000E+00
  0.00000000E+00  0.00000000E+00  0.00000000E+00
  0.00000000E+00  0.00000000E+00  0.00000000E+00
  0.00000000E+00  0.00000000E+00  0.00000000E+00
  0.00000000E+00  0.00000000E+00  0.00000000E+00
  0.00000000E+00  0.00000000E+00  0.00000000E+00
  0.00000000E+00  0.00000000E+00  0.00000000E+00
  0.00000000E+00  0.00000000E+00  0.00000000E+00
  0.00000000E+00  0.00000000E+00  0.00000000E+00
  0.00000000E+00  0.00000000E+00  0.00000000E+00
  0.00000000E+00  0.00000000E+00  0.00000000E+00
  0.00000000E+00  0.00000000E+00  0.00000000E+00
  0.00000000E+00  0.00000000E+00  0.00000000E+00
  0.00000000E+00  0.00000000E+00  0.00000000E+00
  0.00000000E+00  0.00000000E+00  0.00000000E+00
  0.00000000E+00  0.00000000E+00  0.00000000E+00
  0.00000000E+00  0.00000000E+00  0.00000000E+00
  0.00000000E+00  0.00000000E+00  0.00000000E+00
  0.00000000E+00  0.00000000E+00  0.00000000E+00
  0.00000000E+00  0.00000000E+00  0.00000000E+00
  0.00000000E+00  0.00000000E+00  0.00000000E+00
  0.00000000E+00  0.00000000E+00  0.00000000E+00
  0.00000000E+00  0.00000000E+00  0.00000000E+00
  0.00000000E+00  0.00000000E+00  0.00000000E+00
  0.00000000E+00  0.00000000E+00  0.00000000E+00
  0.00000000E+00  0.00000000E+00  0.00000000E+00
  0.00000000E+00  0.00000000E+00  0.00000000E+00
  0.00000000E+00  0.00000000E+00  0.00000000E+00
  0.00000000E+00  0.00000000E+00  0.00000000E+00
  0.00000000E+00  0.00000000E+00  0.00000000E+00
  0.00000000E+00  0.00000000E+00  0.00000000E+00
  0.00000000E+00  0.00000000E+00  0.00000000E+00
  0.00000000E+00  0.00000000E+00  0.00000000E+00
  0.00000000E+00  0.00000000E+00  0.00000000E+00
  0.00000000E+00  0.00000000E+00  0.00000000E+00
  0.00000000E+00  0.00000000E+00  0.00000000E+00
  0.00000000E+00  0.00000000E+00  0.00000000E+00
  0.00000000E+00  0.00000000E+00  0.00000000E+00
  0.00000000E+00  0.00000000E+00  0.00000000E+00
  0.00000000E+00  0.00000000E+00  0.00000000E+00
  0.00000000E+00  0.00000000E+00  0.00000000E+00
  0.00000000E+00  0.00000000E+00  0.00000000E+00
  0.00000000E+00  0.00000000E+00  0.00000000E+00
  0.00000000E+00  0.00000000E+00  0.00000000E+00
  0.00000000E+00  0.00000000E+00  0.00000000E+00
  0.00000000E+00  0.00000000E+00  0.00000000E+00
  0.00000000E+00  0.00000000E+00  0.00000000E+00
  0.00000000E+00  0.00000000E+00  0.00000000E+00
  0.00000000E+00  0.00000000E+00  0.00000000E+00
  0.00000000E+00  0.00000000E+00  0.00000000E+00
  0.00000000E+00  0.00000000E+00  0.00000000E+00
  0.00000000E+00  0.00000000E+00  0.00000000E+00
  0.00000000E+00  0.00000000E+00  0.00000000E+00
  0.00000000E+00  0.00000000E+00  0.00000000E+00
  0.00000000E+00  0.00000000E+00  0.00000000E+00
  0.00000000E+00  0.00000000E+00  0.00000000E+00
  0.00000000E+00  0.00000000E+00  0.00000000E+00
  0.00000000E+00  0.00000000E+00  0.00000000E+00
  0.00000000E+00  0.00000000E+00  0.00000000E+00
  0.00000000E+00  0.00000000E+00  0.00000000E+00
  0.00000000E+00  0.00000000E+00  0.00000000E+00
  0.00000000E+00  0.00000000E+00  0.00000000E+00
  0.00000000E+00  0.00000000E+00  0.00000000E+00
  0.00000000E+00  0.00000000E+00  0.00000000E+00
  0.00000000E+00  0.00000000E+00  0.00000000E+00
  0.00000000E+00  0.00000000E+00  0.00000000E+00
  0.00000000E+00  0.00000000E+00  0.00000000E+00
  0.00000000E+00  0.00000000E+00  0.00000000E+00
  0.00000000E+00  0.00000000E+00  0.00000000E+00
  0.00000000E+00  0.00000000E+00  0.00000000E+00
  0.00000000E+00  0.00000000E+00  0.00000000E+00
  0.00000000E+00  0.00000000E+00  0.00000000E+00
  0.00000000E+00  0.00000000E+00  0.00000000E+00
  0.00000000E+00  0.00000000E+00  0.00000000E+00
  0.00000000E+00  0.00000000E+00  0.00000000E+00
  0.00000000E+00  0.00000000E+00  0.00000000E+00
  0.00000000E+00  0.00000000E+00  0.00000000E+00
  0.00000000E+00  0.00000000E+00  0.00000000E+00
  0.00000000E+00  0.00000000E+00  0.00000000E+00
  0.00000000E+00  0.00000000E+00  0.00000000E+00
  0.00000000E+00  0.00000000E+00  0.00000000E+00
  0.00000000E+00  0.00000000E+00  0.00000000E+00
  0.00000000E+00  0.00000000E+00  0.00000000E+00
  0.00000000E+00  0.00000000E+00  0.00000000E+00
  0.00000000E+00  0.00000000E+00  0.00000000E+00
  0.00000000E+00  0.00000000E+00  0.00000000E+00
  0.00000000E+00  0.00000000E+00  0.00000000E+00
  0.00000000E+00  0.00000000E+00  0.00000000E+00
  0.00000000E+00  0.00000000E+00  0.00000000E+00
  0.00000000E+00  0.00000000E+00  0.00000000E+00
  0.00000000E+00  0.00000000E+00  0.00000000E+00
  0.00000000E+00  0.00000000E+00  0.00000000E+00
  0.00000000E+00  0.00000000E+00  0.00000000E+00
  0.00000000E+00  0.00000000E+00  0.00000000E+00
  0.00000000E+00  0.00000000E+00  0.00000000E+00
  0.00000000E+00  0.00000000E+00  0.00000000E+00
  0.00000000E+00  0.00000000E+00  0.00000000E+00
  0.00000000E+00  0.00000000E+00  0.00000000E+00
  0.00000000E+00  0.00000000E+00  0.00000000E+00
