In48 Ga6 Cu54 Se108                     
   1.0000000000000000     
    16.0580970533725740   -0.0256427639367756   -7.1291257143050499
    -3.1460339813554570   15.7468832561689407   -7.1398226586703597
    -0.0200281566867183   -0.0177663200296562   21.5973886718644899
   In   Ga   Cu   Se
    48     6    54   108
Direct
  0.1669108042931597  0.4994465453994366  0.9999110836299323
  0.8290598659382766  0.4982118608359229  0.9985038889727562
  0.1678536668144943  0.8327426309654626  0.9997695518345964
  0.5006565966981000  0.8333054028757516  0.0003017125549505
  0.8309639292331639  0.8328772943061722  0.9997290382852668
  0.1676723650000511  0.1676694327368864  0.0002153487335264
  0.8323324020848872  0.1679006172096749  0.9999530261426202
  0.1657865967884788  0.5004716313252189  0.3330710823347758
  0.5012301738319707  0.5012519139963132  0.3332859627686346
  0.8335562272247969  0.4998869078625248  0.3338263042947958
  0.1668518097175848  0.8358009927365657  0.3348739115209369
  0.5001580068240798  0.8362830948552968  0.3349023667147080
  0.1677713665691911  0.1648410176542470  0.3350283241979852
  0.5023075766431759  0.1645687540786440  0.3343278080458063
  0.8335973643729062  0.1662953666205880  0.3335465695576971
  0.1678339400701674  0.4990578008441346  0.6669102117986938
  0.5007908271404702  0.4981853045858458  0.6684208804152618
  0.8329019222136296  0.4986724112385588  0.6664383766770143
  0.1674304432458840  0.8341136547754076  0.6668687649975666
  0.4999285218146809  0.8346424309026403  0.6668533613730432
  0.8330337415473750  0.8341101355479807  0.6664492698992674
  0.1679582998877294  0.1657603117504536  0.6650716290459187
  0.4983304488363345  0.1675187051579314  0.6648031613129675
  0.8304438080519319  0.1657007874331669  0.6649502865390531
  0.2506284307190398  0.4172348580928116  0.1666115381813853
  0.5821738110308416  0.4155091273364491  0.1632844324608911
  0.9158794416290448  0.4171354128896709  0.1666871116813766
  0.2497061230711068  0.7499880573775144  0.1667431360386757
  0.5845932917969492  0.7483941356520489  0.1669102445955062
  0.9143872787160845  0.7507138313995583  0.1679199696140685
  0.2508136043063658  0.0833052943594979  0.1667055621597271
  0.5835266372873846  0.0837613492776157  0.1650303664003232
  0.9166857170568221  0.0831644505412541  0.1668424424824337
  0.2511875607060219  0.4154384317275230  0.4999298650833950
  0.5824632016507820  0.4158593108483828  0.5000389533521528
  0.9174162242638033  0.4149406855605307  0.5004947303180671
  0.2507883597642291  0.7507751256014146  0.5001101898478453
  0.5825289197367454  0.7511823947993932  0.5000131635937279
  0.9164913232104652  0.7527515141199572  0.4986388540335653
  0.9154232254121055  0.0805871512190990  0.4984021455252332
  0.2529219666247542  0.4162766231312744  0.8350239863183404
  0.9161341153487541  0.4158640846993436  0.8330531248756685
  0.2515583816435836  0.7492676409933239  0.8335015445975174
  0.5828218845534323  0.7505874502970684  0.8333117214445380
  0.9153461603598672  0.7489676988618115  0.8332776527099099
  0.2541429828407118  0.0849871192207559  0.8352141472593999
  0.5821785400525457  0.0853503603237655  0.8346312705546524
  0.9159743056937302  0.0847556134407199  0.8334272902501070
  0.5010871794672767  0.5001740828628840  0.9984675350393530
  0.5008581316727501  0.1673310945716722  0.0001218917556400
  0.8322503019435885  0.8333898498712884  0.3331870858818604
  0.2491705530667829  0.0826617759157884  0.4995101982029411
  0.5834582480443729  0.0835716548997354  0.5000747919420050
  0.5812898210758135  0.4170741001984624  0.8344888390529093
  0.0001417845864538  0.3339063234761426  0.0006365603451854
  0.3382384535832514  0.3343141109978873  0.0001414449100494
  0.6619084972972686  0.3351703138508242  0.9987089866405512
  0.9980093711398226  0.6660200127846352  0.9999455429839443
  0.3363252067651459  0.6653104889305439  0.0002862191077213
  0.6636612310994749  0.6613547270378817  0.9977134218086263
  0.9996221006154187  0.9999855516573817  0.9998712572833739
  0.3356022409075052  0.0026491422863373  0.0002099816293466
  0.6644981399374643  0.0015138487007604  0.0005119957862760
  0.9993834004548958  0.3328996853353061  0.3332096475928523
  0.3345701935648222  0.3320205618842564  0.3320329466306902
  0.6666050073878296  0.3339781524538026  0.3331523088706660
  0.9957733498088075  0.6681393256817216  0.3323290580132223
  0.3334524005035036  0.6663582383326272  0.3326844854624724
  0.6688727237313117  0.6692413604315561  0.3339980276679029
  0.0010718551637368  0.9986011819095424  0.3352896585351033
  0.3355066292350557  0.0019639115055625  0.3374553652122003
  0.6672347447786819  0.9983340408910522  0.3337980496055124
  0.0008715002378921  0.3323272984197487  0.6666393038561225
  0.3352691006437212  0.3301083991595277  0.6669700512174472
  0.6631002927013014  0.3303648314481507  0.6669905722698957
  0.9998096226022568  0.6669462000917008  0.6662352308019095
  0.3349528677891698  0.6674977071244115  0.6687550651828289
  0.6662406027025725  0.6664929726666955  0.6664441868796871
  0.0018929201763314  0.0012102764763711  0.6679624362977989
  0.3317334854609584  0.0020746182597122  0.6637243662777692
  0.6653938623196041  0.0015222203878977  0.6645674800551191
  0.0817618871625498  0.5847771887761155  0.1668350113233714
  0.4189858352807647  0.5827831179837020  0.1646026642796414
  0.7477849260782889  0.5855960569462795  0.1671963788152411
  0.0841401746329069  0.9169206571405510  0.1666516660800710
  0.4162551534833767  0.9168084497865223  0.1669640249881326
  0.7514049414355100  0.9146907914857678  0.1693701674893404
  0.0837595023075224  0.2497570388921631  0.1674593802585420
  0.4181357308217741  0.2488260751483935  0.1647901952253150
  0.7468194110841111  0.2500650051333508  0.1643252546923719
  0.0844101448836483  0.5835742541261979  0.5007818906998764
  0.4164315549316697  0.5826458853224068  0.5007427130878384
  0.7506855266080237  0.5841116839530471  0.5006295825003448
  0.0821991273841078  0.9173491994160443  0.4976564920366755
  0.4179636394951771  0.9217394049616203  0.5003011609420582
  0.7489939980465863  0.9180356096862567  0.4976598550762503
  0.0860387324879568  0.2471454287382073  0.5000454570305592
  0.4154511701615249  0.2450613216481230  0.4987993696373820
  0.7474901214964476  0.2481276455502268  0.5010660468387798
  0.0836586293118131  0.5828330634324175  0.8331983244758945
  0.4186646174049571  0.5784392826976585  0.8342001171582538
  0.7470965217419234  0.5797769998823767  0.8324245737564695
  0.0834910737608183  0.9165803613197312  0.8335717287808890
  0.4177020238847788  0.9212894085070715  0.8350852196461886
  0.7487237287716724  0.9178761170978831  0.8326196777447308
  0.0836499167904776  0.2495908175074959  0.8325352928981999
  0.4219801017703446  0.2531909827926526  0.8376124396894369
  0.7465855693206080  0.2524425931855916  0.8326072208133297
  0.1139277681904218  0.4595551978988865  0.0841363549091128
  0.4514748778722222  0.4614477587631640  0.0772599875843980
  0.7788708868630607  0.4591374036217388  0.0845897989663129
  0.1134824177597693  0.7909288625457975  0.0825008956630313
  0.4490021003966120  0.7920129092890988  0.0845414927809429
  0.7771909822713354  0.7883364350649558  0.0816660074802229
  0.1145241288979193  0.1250383635268122  0.0832918309623238
  0.4511390187211788  0.1276806800009638  0.0782754825063279
  0.7806881158734882  0.1252574605980854  0.0834677024699104
  0.1144755140295857  0.4578075713907666  0.4169255839008983
  0.4476301337027806  0.4585997505696682  0.4161373201608924
  0.7817112988805590  0.4582982801067317  0.4177465992809246
  0.1134117931655680  0.7908858316219778  0.4161393283930224
  0.4460635270541431  0.7934766228478907  0.4169293216183192
  0.7826252965219780  0.7957492958057486  0.4121659044341044
  0.1205031805877113  0.1205370719060497  0.4209104405847555
  0.4556874475157784  0.1221930764952646  0.4213127210150631
  0.7802033270348687  0.1247528590870246  0.4168237355579834
  0.1159460841826245  0.4573045715180228  0.7509564272999967
  0.4533758136379618  0.4530966197027695  0.7536082922319522
  0.7788898672288553  0.4552594769604426  0.7484705799187950
  0.1151340943162182  0.7915228005623689  0.7502586123185182
  0.4476176515180796  0.7946385640069238  0.7513607380266407
  0.7800741627904841  0.7921118843057258  0.7498039248704629
  0.1173378264770690  0.1253939218830808  0.7505124482908840
  0.4471992661179911  0.1266046885167427  0.7496140763229278
  0.7792134988865556  0.1270133485337155  0.7505399398823087
  0.3027517917859086  0.6250407396059714  0.0832997374542828
  0.6285303396699220  0.6179458475789446  0.0785449193056635
  0.9652882796760736  0.6244888161054760  0.0829687530669361
  0.3037880721844317  0.9590094456707376  0.0826205649677547
  0.6378942335329398  0.9573341184320441  0.0848184675065298
  0.9684517985454093  0.9573060675884406  0.0828569393942118
  0.3043154668035442  0.2929543612134182  0.0830687363635860
  0.6283321611845736  0.2851139430555278  0.0772752291471619
  0.9695339661282389  0.2920162300572358  0.0841452355397934
  0.3029306205949069  0.6246899741194412  0.4165603523030441
  0.6372533418581270  0.6271085745646729  0.4172406010125016
  0.9694610833064701  0.6254729225623237  0.4172895300326473
  0.2996234387309755  0.9659788501049391  0.4217225394889681
  0.6330334914779741  0.9662597566663038  0.4212982495279221
  0.9608345557928715  0.9503802787161106  0.4113162237198154
  0.3038555717061087  0.2900388725500918  0.4158731997266472
  0.6363160012100124  0.2918220734484507  0.4167100306429745
  0.9712027285112583  0.2901251158458678  0.4173629388481785
  0.3052377227507819  0.6229804561416827  0.7515647034103949
  0.6353238376244690  0.6248380694863798  0.7499386261211711
  0.9688905003640400  0.6244748416560668  0.7496069835143260
  0.3032645524256026  0.9598042420329946  0.7484029539318726
  0.6350241632471452  0.9610088179668779  0.7496083133112776
  0.9694251956219659  0.9593154578001943  0.7505935941511979
  0.3044944858104515  0.2903215167532096  0.7515116590208422
  0.6300599653875381  0.2988952347870537  0.7551233635694174
  0.9679237116540875  0.2901818352846917  0.7489776321652286
  0.2088279865324623  0.3644113976536403  0.2500788067580402
  0.5419958148712070  0.3649200696478587  0.2488651214573920
  0.8736053714258247  0.3631243718631936  0.2492307099112949
  0.2077361941155260  0.6988107712332976  0.2508437203322558
  0.5420636653877580  0.6994238374203903  0.2516702338261254
  0.8698062706136795  0.7045446938004929  0.2540727983219426
  0.2103899453523042  0.0303472256893258  0.2507786869067701
  0.5429582853753558  0.0294229243428603  0.2485685681402359
  0.8764189630775334  0.0302448025405795  0.2510631941773838
  0.2105224020794836  0.3629631956760093  0.5841758737009215
  0.5393805377506951  0.3617696242368282  0.5823791048338691
  0.8742219726093481  0.3618302525575388  0.5833155277258655
  0.2098663598074779  0.6978030401098181  0.5841242145408501
  0.5412013304190850  0.6978853549830930  0.5833957529119544
  0.8755465467327284  0.6990309142520132  0.5824382366754008
  0.2085979119356551  0.0322358751730150  0.5765443516526219
  0.5443187243538148  0.0356385816195015  0.5792346932468959
  0.8756055764895549  0.0306464821205594  0.5840743555714951
  0.2097301901150104  0.3629846574753657  0.9172863583655726
  0.5416227326807643  0.3747523913549529  0.9171202876667834
  0.8742298941484776  0.3638160308952649  0.9167940444692917
  0.2103168832267812  0.6960506625363010  0.9169580698489384
  0.5409205946482700  0.6966877360455470  0.9159011226100375
  0.8719752555573592  0.6955925829595841  0.9159827586015084
  0.2088509742540836  0.0312656042181132  0.9164650917383312
  0.5398151564353384  0.0391434302415092  0.9219733429347130
  0.8745536331379995  0.0316556354216857  0.9167977294959897
  0.0399561894256735  0.5541360872568930  0.2504028031343069
  0.3762438656586369  0.5531417429838328  0.2486160670370126
  0.7077789565235051  0.5517657718669895  0.2500561371417405
  0.0410331598382214  0.8855434769852124  0.2492745622276118
  0.3739956505193263  0.8871603323493460  0.2508045516883612
  0.7141419930759412  0.8824132386299155  0.2550781934223494
  0.0430078802442679  0.2184046839292293  0.2514064621155327
  0.3779061039033991  0.2177840122463834  0.2495394704631195
  0.7088099552806426  0.2197107783182872  0.2500913642163525
  0.0422030358542855  0.5518642635841644  0.5837874543416746
  0.3761387912016971  0.5520999141526417  0.5851254959580743
  0.7081000619634352  0.5520593383439305  0.5832369827748138
  0.0432323166450033  0.8878667591247051  0.5834393851692994
  0.3758650552639864  0.8875237610970004  0.5825756460791993
  0.7083542604794175  0.8866873809122637  0.5821251700988057
  0.0410379048507181  0.2170258179706295  0.5821691737324031
  0.3665291548883332  0.2106958768754197  0.5773417327639194
  0.6996928687422681  0.2126089119040273  0.5798328562107073
  0.0411820509073735  0.5522772686862538  0.9166875024321186
  0.3825204079348268  0.5496678550226051  0.9215822869292225
  0.6996088030130636  0.5438836369517404  0.9109527488726314
  0.0414080380571136  0.8849691831817239  0.9165519697472035
  0.3758070760605463  0.8863575076812111  0.9167688919225654
  0.7069530383195826  0.8876710490908479  0.9166132074079627
  0.0420833313267934  0.2201477299571408  0.9167949494331253
  0.3846409529845829  0.2177929286012272  0.9218598221816734
  0.7070019925012119  0.2215375502171639  0.9172424676098814

  0.00000000E+00  0.00000000E+00  0.00000000E+00
  0.00000000E+00  0.00000000E+00  0.00000000E+00
  0.00000000E+00  0.00000000E+00  0.00000000E+00
  0.00000000E+00  0.00000000E+00  0.00000000E+00
  0.00000000E+00  0.00000000E+00  0.00000000E+00
  0.00000000E+00  0.00000000E+00  0.00000000E+00
  0.00000000E+00  0.00000000E+00  0.00000000E+00
  0.00000000E+00  0.00000000E+00  0.00000000E+00
  0.00000000E+00  0.00000000E+00  0.00000000E+00
  0.00000000E+00  0.00000000E+00  0.00000000E+00
  0.00000000E+00  0.00000000E+00  0.00000000E+00
  0.00000000E+00  0.00000000E+00  0.00000000E+00
  0.00000000E+00  0.00000000E+00  0.00000000E+00
  0.00000000E+00  0.00000000E+00  0.00000000E+00
  0.00000000E+00  0.00000000E+00  0.00000000E+00
  0.00000000E+00  0.00000000E+00  0.00000000E+00
  0.00000000E+00  0.00000000E+00  0.00000000E+00
  0.00000000E+00  0.00000000E+00  0.00000000E+00
  0.00000000E+00  0.00000000E+00  0.00000000E+00
  0.00000000E+00  0.00000000E+00  0.00000000E+00
  0.00000000E+00  0.00000000E+00  0.00000000E+00
  0.00000000E+00  0.00000000E+00  0.00000000E+00
  0.00000000E+00  0.00000000E+00  0.00000000E+00
  0.00000000E+00  0.00000000E+00  0.00000000E+00
  0.00000000E+00  0.00000000E+00  0.00000000E+00
  0.00000000E+00  0.00000000E+00  0.00000000E+00
  0.00000000E+00  0.00000000E+00  0.00000000E+00
  0.00000000E+00  0.00000000E+00  0.00000000E+00
  0.00000000E+00  0.00000000E+00  0.00000000E+00
  0.00000000E+00  0.00000000E+00  0.00000000E+00
  0.00000000E+00  0.00000000E+00  0.00000000E+00
  0.00000000E+00  0.00000000E+00  0.00000000E+00
  0.00000000E+00  0.00000000E+00  0.00000000E+00
  0.00000000E+00  0.00000000E+00  0.00000000E+00
  0.00000000E+00  0.00000000E+00  0.00000000E+00
  0.00000000E+00  0.00000000E+00  0.00000000E+00
  0.00000000E+00  0.00000000E+00  0.00000000E+00
  0.00000000E+00  0.00000000E+00  0.00000000E+00
  0.00000000E+00  0.00000000E+00  0.00000000E+00
  0.00000000E+00  0.00000000E+00  0.00000000E+00
  0.00000000E+00  0.00000000E+00  0.00000000E+00
  0.00000000E+00  0.00000000E+00  0.00000000E+00
  0.00000000E+00  0.00000000E+00  0.00000000E+00
  0.00000000E+00  0.00000000E+00  0.00000000E+00
  0.00000000E+00  0.00000000E+00  0.00000000E+00
  0.00000000E+00  0.00000000E+00  0.00000000E+00
  0.00000000E+00  0.00000000E+00  0.00000000E+00
  0.00000000E+00  0.00000000E+00  0.00000000E+00
  0.00000000E+00  0.00000000E+00  0.00000000E+00
  0.00000000E+00  0.00000000E+00  0.00000000E+00
  0.00000000E+00  0.00000000E+00  0.00000000E+00
  0.00000000E+00  0.00000000E+00  0.00000000E+00
  0.00000000E+00  0.00000000E+00  0.00000000E+00
  0.00000000E+00  0.00000000E+00  0.00000000E+00
  0.00000000E+00  0.00000000E+00  0.00000000E+00
  0.00000000E+00  0.00000000E+00  0.00000000E+00
  0.00000000E+00  0.00000000E+00  0.00000000E+00
  0.00000000E+00  0.00000000E+00  0.00000000E+00
  0.00000000E+00  0.00000000E+00  0.00000000E+00
  0.00000000E+00  0.00000000E+00  0.00000000E+00
  0.00000000E+00  0.00000000E+00  0.00000000E+00
  0.00000000E+00  0.00000000E+00  0.00000000E+00
  0.00000000E+00  0.00000000E+00  0.00000000E+00
  0.00000000E+00  0.00000000E+00  0.00000000E+00
  0.00000000E+00  0.00000000E+00  0.00000000E+00
  0.00000000E+00  0.00000000E+00  0.00000000E+00
  0.00000000E+00  0.00000000E+00  0.00000000E+00
  0.00000000E+00  0.00000000E+00  0.00000000E+00
  0.00000000E+00  0.00000000E+00  0.00000000E+00
  0.00000000E+00  0.00000000E+00  0.00000000E+00
  0.00000000E+00  0.00000000E+00  0.00000000E+00
  0.00000000E+00  0.00000000E+00  0.00000000E+00
  0.00000000E+00  0.00000000E+00  0.00000000E+00
  0.00000000E+00  0.00000000E+00  0.00000000E+00
  0.00000000E+00  0.00000000E+00  0.00000000E+00
  0.00000000E+00  0.00000000E+00  0.00000000E+00
  0.00000000E+00  0.00000000E+00  0.00000000E+00
  0.00000000E+00  0.00000000E+00  0.00000000E+00
  0.00000000E+00  0.00000000E+00  0.00000000E+00
  0.00000000E+00  0.00000000E+00  0.00000000E+00
  0.00000000E+00  0.00000000E+00  0.00000000E+00
  0.00000000E+00  0.00000000E+00  0.00000000E+00
  0.00000000E+00  0.00000000E+00  0.00000000E+00
  0.00000000E+00  0.00000000E+00  0.00000000E+00
  0.00000000E+00  0.00000000E+00  0.00000000E+00
  0.00000000E+00  0.00000000E+00  0.00000000E+00
  0.00000000E+00  0.00000000E+00  0.00000000E+00
  0.00000000E+00  0.00000000E+00  0.00000000E+00
  0.00000000E+00  0.00000000E+00  0.00000000E+00
  0.00000000E+00  0.00000000E+00  0.00000000E+00
  0.00000000E+00  0.00000000E+00  0.00000000E+00
  0.00000000E+00  0.00000000E+00  0.00000000E+00
  0.00000000E+00  0.00000000E+00  0.00000000E+00
  0.00000000E+00  0.00000000E+00  0.00000000E+00
  0.00000000E+00  0.00000000E+00  0.00000000E+00
  0.00000000E+00  0.00000000E+00  0.00000000E+00
  0.00000000E+00  0.00000000E+00  0.00000000E+00
  0.00000000E+00  0.00000000E+00  0.00000000E+00
  0.00000000E+00  0.00000000E+00  0.00000000E+00
  0.00000000E+00  0.00000000E+00  0.00000000E+00
  0.00000000E+00  0.00000000E+00  0.00000000E+00
  0.00000000E+00  0.00000000E+00  0.00000000E+00
  0.00000000E+00  0.00000000E+00  0.00000000E+00
  0.00000000E+00  0.00000000E+00  0.00000000E+00
  0.00000000E+00  0.00000000E+00  0.00000000E+00
  0.00000000E+00  0.00000000E+00  0.00000000E+00
  0.00000000E+00  0.00000000E+00  0.00000000E+00
  0.00000000E+00  0.00000000E+00  0.00000000E+00
  0.00000000E+00  0.00000000E+00  0.00000000E+00
  0.00000000E+00  0.00000000E+00  0.00000000E+00
  0.00000000E+00  0.00000000E+00  0.00000000E+00
  0.00000000E+00  0.00000000E+00  0.00000000E+00
  0.00000000E+00  0.00000000E+00  0.00000000E+00
  0.00000000E+00  0.00000000E+00  0.00000000E+00
  0.00000000E+00  0.00000000E+00  0.00000000E+00
  0.00000000E+00  0.00000000E+00  0.00000000E+00
  0.00000000E+00  0.00000000E+00  0.00000000E+00
  0.00000000E+00  0.00000000E+00  0.00000000E+00
  0.00000000E+00  0.00000000E+00  0.00000000E+00
  0.00000000E+00  0.00000000E+00  0.00000000E+00
  0.00000000E+00  0.00000000E+00  0.00000000E+00
  0.00000000E+00  0.00000000E+00  0.00000000E+00
  0.00000000E+00  0.00000000E+00  0.00000000E+00
  0.00000000E+00  0.00000000E+00  0.00000000E+00
  0.00000000E+00  0.00000000E+00  0.00000000E+00
  0.00000000E+00  0.00000000E+00  0.00000000E+00
  0.00000000E+00  0.00000000E+00  0.00000000E+00
  0.00000000E+00  0.00000000E+00  0.00000000E+00
  0.00000000E+00  0.00000000E+00  0.00000000E+00
  0.00000000E+00  0.00000000E+00  0.00000000E+00
  0.00000000E+00  0.00000000E+00  0.00000000E+00
  0.00000000E+00  0.00000000E+00  0.00000000E+00
  0.00000000E+00  0.00000000E+00  0.00000000E+00
  0.00000000E+00  0.00000000E+00  0.00000000E+00
  0.00000000E+00  0.00000000E+00  0.00000000E+00
  0.00000000E+00  0.00000000E+00  0.00000000E+00
  0.00000000E+00  0.00000000E+00  0.00000000E+00
  0.00000000E+00  0.00000000E+00  0.00000000E+00
  0.00000000E+00  0.00000000E+00  0.00000000E+00
  0.00000000E+00  0.00000000E+00  0.00000000E+00
  0.00000000E+00  0.00000000E+00  0.00000000E+00
  0.00000000E+00  0.00000000E+00  0.00000000E+00
  0.00000000E+00  0.00000000E+00  0.00000000E+00
  0.00000000E+00  0.00000000E+00  0.00000000E+00
  0.00000000E+00  0.00000000E+00  0.00000000E+00
  0.00000000E+00  0.00000000E+00  0.00000000E+00
  0.00000000E+00  0.00000000E+00  0.00000000E+00
  0.00000000E+00  0.00000000E+00  0.00000000E+00
  0.00000000E+00  0.00000000E+00  0.00000000E+00
  0.00000000E+00  0.00000000E+00  0.00000000E+00
  0.00000000E+00  0.00000000E+00  0.00000000E+00
  0.00000000E+00  0.00000000E+00  0.00000000E+00
  0.00000000E+00  0.00000000E+00  0.00000000E+00
  0.00000000E+00  0.00000000E+00  0.00000000E+00
  0.00000000E+00  0.00000000E+00  0.00000000E+00
  0.00000000E+00  0.00000000E+00  0.00000000E+00
  0.00000000E+00  0.00000000E+00  0.00000000E+00
  0.00000000E+00  0.00000000E+00  0.00000000E+00
  0.00000000E+00  0.00000000E+00  0.00000000E+00
  0.00000000E+00  0.00000000E+00  0.00000000E+00
  0.00000000E+00  0.00000000E+00  0.00000000E+00
  0.00000000E+00  0.00000000E+00  0.00000000E+00
  0.00000000E+00  0.00000000E+00  0.00000000E+00
  0.00000000E+00  0.00000000E+00  0.00000000E+00
  0.00000000E+00  0.00000000E+00  0.00000000E+00
  0.00000000E+00  0.00000000E+00  0.00000000E+00
  0.00000000E+00  0.00000000E+00  0.00000000E+00
  0.00000000E+00  0.00000000E+00  0.00000000E+00
  0.00000000E+00  0.00000000E+00  0.00000000E+00
  0.00000000E+00  0.00000000E+00  0.00000000E+00
  0.00000000E+00  0.00000000E+00  0.00000000E+00
  0.00000000E+00  0.00000000E+00  0.00000000E+00
  0.00000000E+00  0.00000000E+00  0.00000000E+00
  0.00000000E+00  0.00000000E+00  0.00000000E+00
  0.00000000E+00  0.00000000E+00  0.00000000E+00
  0.00000000E+00  0.00000000E+00  0.00000000E+00
  0.00000000E+00  0.00000000E+00  0.00000000E+00
  0.00000000E+00  0.00000000E+00  0.00000000E+00
  0.00000000E+00  0.00000000E+00  0.00000000E+00
  0.00000000E+00  0.00000000E+00  0.00000000E+00
  0.00000000E+00  0.00000000E+00  0.00000000E+00
  0.00000000E+00  0.00000000E+00  0.00000000E+00
  0.00000000E+00  0.00000000E+00  0.00000000E+00
  0.00000000E+00  0.00000000E+00  0.00000000E+00
  0.00000000E+00  0.00000000E+00  0.00000000E+00
  0.00000000E+00  0.00000000E+00  0.00000000E+00
  0.00000000E+00  0.00000000E+00  0.00000000E+00
  0.00000000E+00  0.00000000E+00  0.00000000E+00
  0.00000000E+00  0.00000000E+00  0.00000000E+00
  0.00000000E+00  0.00000000E+00  0.00000000E+00
  0.00000000E+00  0.00000000E+00  0.00000000E+00
  0.00000000E+00  0.00000000E+00  0.00000000E+00
  0.00000000E+00  0.00000000E+00  0.00000000E+00
  0.00000000E+00  0.00000000E+00  0.00000000E+00
  0.00000000E+00  0.00000000E+00  0.00000000E+00
  0.00000000E+00  0.00000000E+00  0.00000000E+00
  0.00000000E+00  0.00000000E+00  0.00000000E+00
  0.00000000E+00  0.00000000E+00  0.00000000E+00
  0.00000000E+00  0.00000000E+00  0.00000000E+00
  0.00000000E+00  0.00000000E+00  0.00000000E+00
  0.00000000E+00  0.00000000E+00  0.00000000E+00
  0.00000000E+00  0.00000000E+00  0.00000000E+00
  0.00000000E+00  0.00000000E+00  0.00000000E+00
  0.00000000E+00  0.00000000E+00  0.00000000E+00
  0.00000000E+00  0.00000000E+00  0.00000000E+00
  0.00000000E+00  0.00000000E+00  0.00000000E+00
  0.00000000E+00  0.00000000E+00  0.00000000E+00
  0.00000000E+00  0.00000000E+00  0.00000000E+00
  0.00000000E+00  0.00000000E+00  0.00000000E+00
  0.00000000E+00  0.00000000E+00  0.00000000E+00
  0.00000000E+00  0.00000000E+00  0.00000000E+00
  0.00000000E+00  0.00000000E+00  0.00000000E+00
  0.00000000E+00  0.00000000E+00  0.00000000E+00
  0.00000000E+00  0.00000000E+00  0.00000000E+00
  0.00000000E+00  0.00000000E+00  0.00000000E+00
  0.00000000E+00  0.00000000E+00  0.00000000E+00
