In18 Ga36 Cu6 Ag48 Se108                
   1.0000000000000000     
    16.4584837242627842    0.0000687689731137   -7.6632991211678112
    -3.5552241812109036   16.0593736044205997   -7.6199564777509705
     0.0148841465083809    0.0180764701288876   21.5541571766696975
   In   Ga   Cu   Ag   Se
    18    36     6    48   108
Direct
  0.5041795985751207  0.4995887672433739  0.0004163715379946
  0.8313513225338980  0.8326486497591645  0.9992793271384883
  0.1652355333565509  0.1630654304347345  0.9980441805420810
  0.5025343371825244  0.5049279230927723  0.3353667409984453
  0.8318728556002881  0.5030197458454779  0.3338936646955162
  0.1665324047147863  0.1646982796097234  0.3336988332908035
  0.4978157319027545  0.1616684504610717  0.3270296998732078
  0.8307722600728980  0.1646936818145264  0.3309899220151848
  0.1636932974753051  0.5000475008200524  0.6643388742402792
  0.5023043021138491  0.4978534125138410  0.6701195055819653
  0.1726759349804468  0.1647773053379140  0.6683860568154927
  0.2463089976706598  0.4219973403061061  0.1655145263422781
  0.5893007243279982  0.4158887437606467  0.5043662277308059
  0.5856832007855033  0.0806997631982043  0.5034700450766323
  0.9114314307141527  0.0800791881905667  0.5028284138108035
  0.2501024374885148  0.4201017176377775  0.8370313991366771
  0.9143120127195346  0.4145814898318818  0.8325852911562137
  0.2526080883166983  0.7524476666891573  0.8356426631360705
  0.1641631012618632  0.5043621854726723  0.0005978541955685
  0.8295534423908180  0.4977292563421614  0.0008522554564578
  0.1628905217953118  0.8300340065727880  0.9998768360944084
  0.5079489689295613  0.8344870665682507  0.0017384598330636
  0.5007675281628181  0.1678800803207423  0.9969322647321945
  0.8325469692694298  0.1671848929714983  0.9977815918696109
  0.1651148811222853  0.5008272732338952  0.3351624784942544
  0.1653698373562023  0.8319064914284482  0.3319527015687100
  0.5043864175808466  0.8305957886411122  0.3319810032196386
  0.8325917038961705  0.8342438044625453  0.3329381796347874
  0.8339004942542090  0.5020468321366138  0.6694903612350913
  0.1650416479895753  0.8368056404866948  0.6654009090116517
  0.5003910856657896  0.8354170991246477  0.6663337487617298
  0.8343891124450238  0.8384780777016516  0.6680509898541516
  0.5024695676973110  0.1666399898892692  0.6694030521952925
  0.8305634666691262  0.1659694706131774  0.6711066456275674
  0.5805084801256513  0.4145563402444807  0.1643700246879334
  0.9177203681548889  0.4146276643510234  0.1654765683421218
  0.2505995153003866  0.7500816180699417  0.1678609025548639
  0.5890478839204150  0.7536979576456631  0.1661483700030146
  0.9119899965535936  0.7492326516732746  0.1683932684848344
  0.2458265328290068  0.0775670608915959  0.1627733643344769
  0.5852937247199463  0.0779565309565413  0.1603838350331728
  0.9124687433973406  0.0812266340490027  0.1627747138768854
  0.2512238984009372  0.4183725037322930  0.4997278584531770
  0.9139840818756397  0.4190326739609560  0.5018251740606630
  0.2500215030502275  0.7511703798150364  0.5003890781754308
  0.5885652814544713  0.7571895227966863  0.5027168140149740
  0.9172144144729231  0.7602493521640739  0.5033001002472304
  0.2522982086400489  0.0774380740126333  0.5002178220156921
  0.5859854351246909  0.4077850755378094  0.8332009025496632
  0.5827648413042041  0.7538717164724247  0.8316941668033451
  0.9189508600614289  0.7474242171837062  0.8324158434493967
  0.2534616040780477  0.0804556259973310  0.8320578901519937
  0.5845781236279990  0.0875718727925943  0.8334295398335740
  0.9105090989796025  0.0871956697484890  0.8338521805625732
  0.6688663092597125  0.3301597017434119  0.6724313017599854
  0.7510323184864163  0.9156581759984377  0.1674655985937648
  0.7475061812662744  0.9135247356950202  0.4999442715902731
  0.0820153767280800  0.5866319535303575  0.8359568334375140
  0.4200815679770855  0.2471885501034308  0.8341588426161053
  0.7444561867874242  0.2510009592300761  0.8324604411836347
  0.9926069694657755  0.3336326390898208  0.9965351304775467
  0.3353914754280609  0.3245464780315785  0.9943858200589162
  0.6712318189793081  0.3302687952182453  0.9974791660723739
  0.0017812921821658  0.6658066416812147  0.0019021331246449
  0.3301677147964241  0.6758956751031704  0.0062866507776178
  0.6688342761344117  0.6679652934331060  0.9976186314129052
  0.9972791992022039  0.9966658363350973  0.9942504925733147
  0.3343629748461936  0.9995679326563547  0.0023221071771928
  0.6626204767258628  0.9992285279195343  0.9994324689350265
  0.9993618120127721  0.3386512273310842  0.3369676423779708
  0.3315572573086740  0.3303600614989008  0.3294804285968098
  0.6663973533771710  0.3296102340867364  0.3273617862160165
  0.0028618565601235  0.6654837170667278  0.3327390628091607
  0.3320625987849724  0.6755499491078254  0.3401817172613377
  0.6704245176793862  0.6750994274425182  0.3380947648325758
  0.9980569334124354  0.9976045569509395  0.3271969342916350
  0.3346109495071943  0.9913481844229963  0.3293213770413672
  0.6606070435973308  0.9913490009350028  0.3266823475490597
  0.9975379713793942  0.3363542573490435  0.6678543992238630
  0.3341024705991131  0.3281501121622057  0.6648874202196637
  0.9937190606294592  0.6651166908402004  0.6682641721466211
  0.3310567138339096  0.6685172297866089  0.6617761671353293
  0.6661969512366355  0.6746777337324232  0.6712423494808633
  0.9971495523282528  0.0029727768877095  0.6698268394624378
  0.3428464299166407  0.0015098125895179  0.6704251117842759
  0.6733184921985824  0.0012117454124834  0.6712194955981090
  0.0769305614789531  0.5894329766621382  0.1667963077868890
  0.4213340895619240  0.5876243049778793  0.1660703986255285
  0.7530299256776871  0.5830902111151133  0.1696743077199301
  0.0803535677343774  0.9143244226083240  0.1674476312906847
  0.4111792868259059  0.9078723796674595  0.1584238839280943
  0.0796013672783502  0.2494418375944463  0.1693777253793201
  0.4193389971126678  0.2416461647104100  0.1607372119256993
  0.7474960078326021  0.2481134216671563  0.1568051787480513
  0.0828827140721913  0.5873105363623878  0.4981953433499910
  0.4194650492331604  0.5911425848660130  0.5017340132469741
  0.7598693516192725  0.5904186885468690  0.5085395056558255
  0.0803258416703301  0.9117169616256646  0.4946174511503045
  0.4127579891517144  0.9129226984071508  0.4956145743304674
  0.0834740679740662  0.2485386662340474  0.4992696317352667
  0.4169257168360190  0.2507314650983474  0.5034970531993395
  0.7535144082470566  0.2522469018484443  0.5097529015270226
  0.4246048627540802  0.5848286717069868  0.8372816067595537
  0.7497463058292411  0.5776416057184690  0.8342394241151325
  0.0794624131362696  0.9147306505445059  0.8294929604916845
  0.4209303901730266  0.9182318283855722  0.8330229345905735
  0.7496534441290876  0.9162680326011383  0.8274434327133662
  0.0862634503205939  0.2508246241856753  0.8362552906478626
  0.1197093783740328  0.4633123339001557  0.0766735824413018
  0.4628281539263170  0.4548959696116199  0.0852019162621431
  0.8007682488258041  0.4581183522210281  0.0860704979830231
  0.1340331874208260  0.7918643157772323  0.0860546634006738
  0.4712954831086478  0.7898677175372271  0.0806071503416490
  0.7963657047990367  0.7976009798050399  0.0930059395500251
  0.1287603210985324  0.1220386373469751  0.0872667985779785
  0.4696167817241133  0.1199039167387994  0.0772411869938949
  0.7977649866762633  0.1220064226800019  0.0776769726627009
  0.1334579099332345  0.4603458759534647  0.4188423335098221
  0.4610891469090177  0.4584557748158673  0.4190750902040747
  0.7954937737630630  0.4571922510384638  0.4207232694165981
  0.1348980441815186  0.7901420066151346  0.4152159529924901
  0.4709191647944024  0.7932683809655288  0.4166708246626385
  0.7993944826573411  0.8040325473559022  0.4227728091078546
  0.1330780144514847  0.1191825260473465  0.4220450977399253
  0.4595591563150379  0.1219412190610001  0.4156797153743028
  0.7869396642342892  0.1234473233679338  0.4160319708450118
  0.1224801577084378  0.4683603555033500  0.7562437400027662
  0.4680644159115417  0.4522394071419455  0.7575447619398687
  0.7865291576112838  0.4509959117058031  0.7400963465082881
  0.1270831830046433  0.7914298453036324  0.7428985421750198
  0.4658666546972867  0.7915050907292951  0.7467066251238066
  0.8046960571689681  0.7922396449664291  0.7499254631244412
  0.1342658820142191  0.1226213724815821  0.7560359829079033
  0.4675471380437486  0.1340967133927151  0.7564724642501801
  0.7950186171453453  0.1360858865620429  0.7584994243265157
  0.2826605602368559  0.6258666019134651  0.0858002548301613
  0.6269784086916559  0.6320562569268802  0.0878927059743475
  0.9419030320373096  0.6255218463409804  0.0806324409592278
  0.2791685359013840  0.9538739353536414  0.0795151081327887
  0.6289653390980376  0.9541195019893536  0.0880236625822306
  0.9553912855580222  0.9640193738836516  0.0858244926399578
  0.2899441189541463  0.2923938461652540  0.0836514695720467
  0.6143676521805119  0.2932316394748824  0.0795452921462356
  0.9491788425210146  0.2904530329041393  0.0821812126680683
  0.2810435908257745  0.6258420524788804  0.4177190681327403
  0.6283099763023827  0.6357673318703263  0.4262462774225924
  0.9524482816526714  0.6379508731740060  0.4220680952094753
  0.2814592095119650  0.9548804667026829  0.4126646718615916
  0.6265414639208728  0.9488563980983287  0.4172473864495743
  0.9500259896305892  0.9539602855136806  0.4113206088625603
  0.2897469262367665  0.2976117252808734  0.4210948953975659
  0.6262004231070648  0.2882629037739974  0.4147034252699271
  0.9534635296117884  0.2986866799465204  0.4226321431846927
  0.2936300820858122  0.6248938104648190  0.7496259840354256
  0.6235882928984537  0.6324920969586145  0.7568275856388738
  0.9569819315832859  0.6212120497327760  0.7564972803960330
  0.2851190771845040  0.9569479773846652  0.7485530982844608
  0.6141208914978975  0.9608119305623148  0.7497942261227308
  0.9471416545649518  0.9640021214128396  0.7541123066689792
  0.3012963849063368  0.2918072310163495  0.7594841397327414
  0.6254118074301189  0.2883319142953980  0.7497165056655035
  0.9513893637633686  0.2823177473255498  0.7458537277668782
  0.2039631341461572  0.3832814970681326  0.2535365350128345
  0.5415480156300490  0.3773907514961010  0.2449939946142976
  0.8747864882405025  0.3785528804837597  0.2448483085569322
  0.2070879506457430  0.7174316426380045  0.2496608505473645
  0.5463353603842762  0.7185328268249194  0.2474750093993805
  0.8759232131895800  0.7167770996282599  0.2537612602174306
  0.2107044970158398  0.0411970098666572  0.2458025323773185
  0.5398458187026307  0.0381060757982041  0.2370241680185501
  0.8680533846809766  0.0363148417515688  0.2385539441670801
  0.2118440549895126  0.3771325669785170  0.5790719737314376
  0.5529009830927052  0.3709439274101598  0.5920862700967007
  0.8740964327763407  0.3868323085470564  0.5855553280294430
  0.2064977372807562  0.7208621598719347  0.5828065879124225
  0.5450615063292545  0.7228713803402229  0.5842052032389162
  0.8792444646471509  0.7261025984670724  0.5872014443240801
  0.2121641394680367  0.0381070245380215  0.5789345122610214
  0.5393768215989425  0.0450377779050228  0.5903636172244049
  0.8600832150600439  0.0401633565303641  0.5857494817250810
  0.2078585820274910  0.3847624991012850  0.9259688029352020
  0.5386448017221070  0.3673642860784341  0.9089124400684625
  0.8603053438737405  0.3751787294069047  0.9144744459941236
  0.1976028172768096  0.7094021308400116  0.9156502806386229
  0.5454604018757507  0.7193351326954556  0.9155065842821273
  0.8763671021041048  0.7092057197961665  0.9115456943575850
  0.2116744183175783  0.0413005512761657  0.9107958878495737
  0.5443695531056960  0.0537257206432287  0.9161303519615416
  0.8733427658607837  0.0506743134042154  0.9160771077206320
  0.0411253725807939  0.5315404521834921  0.2493103634488349
  0.3747928537655056  0.5485093692048935  0.2521526092261013
  0.6978840430120385  0.5360376615511129  0.2460169950059026
  0.0392570789350586  0.8616405970210081  0.2483634065061509
  0.3784825132908907  0.8620393911451316  0.2482044967023143
  0.7136444182957078  0.8694539476416381  0.2452624522878182
  0.0314178571953505  0.2008081261739108  0.2493106284733244
  0.3649536974269978  0.1971696530077622  0.2396303218746425
  0.7016912012414949  0.1985788441005951  0.2384391580561385
  0.0326879311733137  0.5375094784837131  0.5769999166311663
  0.3725170599621492  0.5347707065323917  0.5797429656198290
  0.7166753413866331  0.5451411902765031  0.5927812835137729
  0.0423289012512669  0.8741406273969972  0.5853547070824661
  0.3754148213219040  0.8652602801174467  0.5821385309396376
  0.7130236734297029  0.8732973248765106  0.5820913374583299
  0.0414324764889571  0.2061390509089733  0.5859095076209542
  0.3759900308497279  0.1946071004138616  0.5832377600578198
  0.7119957964145627  0.2118675194775008  0.5966996145914294
  0.0467915660028027  0.5403911340317933  0.9144527552998341
  0.3766371859642916  0.5475942846170057  0.9222740495163109
  0.7052888566205624  0.5290989001780702  0.9172228692958129
  0.0413457603133622  0.8642210771285974  0.9152456309939012
  0.3872251569628844  0.8742093549446537  0.9239120217908550
  0.7024712010780334  0.8708651731306389  0.9101978198021072
  0.0332309080461641  0.2016199933477836  0.9131693963219050
  0.3779106337256550  0.1980793734707262  0.9082790791854194
  0.7115874164643472  0.2009567665663852  0.9103463501288047

  0.00000000E+00  0.00000000E+00  0.00000000E+00
  0.00000000E+00  0.00000000E+00  0.00000000E+00
  0.00000000E+00  0.00000000E+00  0.00000000E+00
  0.00000000E+00  0.00000000E+00  0.00000000E+00
  0.00000000E+00  0.00000000E+00  0.00000000E+00
  0.00000000E+00  0.00000000E+00  0.00000000E+00
  0.00000000E+00  0.00000000E+00  0.00000000E+00
  0.00000000E+00  0.00000000E+00  0.00000000E+00
  0.00000000E+00  0.00000000E+00  0.00000000E+00
  0.00000000E+00  0.00000000E+00  0.00000000E+00
  0.00000000E+00  0.00000000E+00  0.00000000E+00
  0.00000000E+00  0.00000000E+00  0.00000000E+00
  0.00000000E+00  0.00000000E+00  0.00000000E+00
  0.00000000E+00  0.00000000E+00  0.00000000E+00
  0.00000000E+00  0.00000000E+00  0.00000000E+00
  0.00000000E+00  0.00000000E+00  0.00000000E+00
  0.00000000E+00  0.00000000E+00  0.00000000E+00
  0.00000000E+00  0.00000000E+00  0.00000000E+00
  0.00000000E+00  0.00000000E+00  0.00000000E+00
  0.00000000E+00  0.00000000E+00  0.00000000E+00
  0.00000000E+00  0.00000000E+00  0.00000000E+00
  0.00000000E+00  0.00000000E+00  0.00000000E+00
  0.00000000E+00  0.00000000E+00  0.00000000E+00
  0.00000000E+00  0.00000000E+00  0.00000000E+00
  0.00000000E+00  0.00000000E+00  0.00000000E+00
  0.00000000E+00  0.00000000E+00  0.00000000E+00
  0.00000000E+00  0.00000000E+00  0.00000000E+00
  0.00000000E+00  0.00000000E+00  0.00000000E+00
  0.00000000E+00  0.00000000E+00  0.00000000E+00
  0.00000000E+00  0.00000000E+00  0.00000000E+00
  0.00000000E+00  0.00000000E+00  0.00000000E+00
  0.00000000E+00  0.00000000E+00  0.00000000E+00
  0.00000000E+00  0.00000000E+00  0.00000000E+00
  0.00000000E+00  0.00000000E+00  0.00000000E+00
  0.00000000E+00  0.00000000E+00  0.00000000E+00
  0.00000000E+00  0.00000000E+00  0.00000000E+00
  0.00000000E+00  0.00000000E+00  0.00000000E+00
  0.00000000E+00  0.00000000E+00  0.00000000E+00
  0.00000000E+00  0.00000000E+00  0.00000000E+00
  0.00000000E+00  0.00000000E+00  0.00000000E+00
  0.00000000E+00  0.00000000E+00  0.00000000E+00
  0.00000000E+00  0.00000000E+00  0.00000000E+00
  0.00000000E+00  0.00000000E+00  0.00000000E+00
  0.00000000E+00  0.00000000E+00  0.00000000E+00
  0.00000000E+00  0.00000000E+00  0.00000000E+00
  0.00000000E+00  0.00000000E+00  0.00000000E+00
  0.00000000E+00  0.00000000E+00  0.00000000E+00
  0.00000000E+00  0.00000000E+00  0.00000000E+00
  0.00000000E+00  0.00000000E+00  0.00000000E+00
  0.00000000E+00  0.00000000E+00  0.00000000E+00
  0.00000000E+00  0.00000000E+00  0.00000000E+00
  0.00000000E+00  0.00000000E+00  0.00000000E+00
  0.00000000E+00  0.00000000E+00  0.00000000E+00
  0.00000000E+00  0.00000000E+00  0.00000000E+00
  0.00000000E+00  0.00000000E+00  0.00000000E+00
  0.00000000E+00  0.00000000E+00  0.00000000E+00
  0.00000000E+00  0.00000000E+00  0.00000000E+00
  0.00000000E+00  0.00000000E+00  0.00000000E+00
  0.00000000E+00  0.00000000E+00  0.00000000E+00
  0.00000000E+00  0.00000000E+00  0.00000000E+00
  0.00000000E+00  0.00000000E+00  0.00000000E+00
  0.00000000E+00  0.00000000E+00  0.00000000E+00
  0.00000000E+00  0.00000000E+00  0.00000000E+00
  0.00000000E+00  0.00000000E+00  0.00000000E+00
  0.00000000E+00  0.00000000E+00  0.00000000E+00
  0.00000000E+00  0.00000000E+00  0.00000000E+00
  0.00000000E+00  0.00000000E+00  0.00000000E+00
  0.00000000E+00  0.00000000E+00  0.00000000E+00
  0.00000000E+00  0.00000000E+00  0.00000000E+00
  0.00000000E+00  0.00000000E+00  0.00000000E+00
  0.00000000E+00  0.00000000E+00  0.00000000E+00
  0.00000000E+00  0.00000000E+00  0.00000000E+00
  0.00000000E+00  0.00000000E+00  0.00000000E+00
  0.00000000E+00  0.00000000E+00  0.00000000E+00
  0.00000000E+00  0.00000000E+00  0.00000000E+00
  0.00000000E+00  0.00000000E+00  0.00000000E+00
  0.00000000E+00  0.00000000E+00  0.00000000E+00
  0.00000000E+00  0.00000000E+00  0.00000000E+00
  0.00000000E+00  0.00000000E+00  0.00000000E+00
  0.00000000E+00  0.00000000E+00  0.00000000E+00
  0.00000000E+00  0.00000000E+00  0.00000000E+00
  0.00000000E+00  0.00000000E+00  0.00000000E+00
  0.00000000E+00  0.00000000E+00  0.00000000E+00
  0.00000000E+00  0.00000000E+00  0.00000000E+00
  0.00000000E+00  0.00000000E+00  0.00000000E+00
  0.00000000E+00  0.00000000E+00  0.00000000E+00
  0.00000000E+00  0.00000000E+00  0.00000000E+00
  0.00000000E+00  0.00000000E+00  0.00000000E+00
  0.00000000E+00  0.00000000E+00  0.00000000E+00
  0.00000000E+00  0.00000000E+00  0.00000000E+00
  0.00000000E+00  0.00000000E+00  0.00000000E+00
  0.00000000E+00  0.00000000E+00  0.00000000E+00
  0.00000000E+00  0.00000000E+00  0.00000000E+00
  0.00000000E+00  0.00000000E+00  0.00000000E+00
  0.00000000E+00  0.00000000E+00  0.00000000E+00
  0.00000000E+00  0.00000000E+00  0.00000000E+00
  0.00000000E+00  0.00000000E+00  0.00000000E+00
  0.00000000E+00  0.00000000E+00  0.00000000E+00
  0.00000000E+00  0.00000000E+00  0.00000000E+00
  0.00000000E+00  0.00000000E+00  0.00000000E+00
  0.00000000E+00  0.00000000E+00  0.00000000E+00
  0.00000000E+00  0.00000000E+00  0.00000000E+00
  0.00000000E+00  0.00000000E+00  0.00000000E+00
  0.00000000E+00  0.00000000E+00  0.00000000E+00
  0.00000000E+00  0.00000000E+00  0.00000000E+00
  0.00000000E+00  0.00000000E+00  0.00000000E+00
  0.00000000E+00  0.00000000E+00  0.00000000E+00
  0.00000000E+00  0.00000000E+00  0.00000000E+00
  0.00000000E+00  0.00000000E+00  0.00000000E+00
  0.00000000E+00  0.00000000E+00  0.00000000E+00
  0.00000000E+00  0.00000000E+00  0.00000000E+00
  0.00000000E+00  0.00000000E+00  0.00000000E+00
  0.00000000E+00  0.00000000E+00  0.00000000E+00
  0.00000000E+00  0.00000000E+00  0.00000000E+00
  0.00000000E+00  0.00000000E+00  0.00000000E+00
  0.00000000E+00  0.00000000E+00  0.00000000E+00
  0.00000000E+00  0.00000000E+00  0.00000000E+00
  0.00000000E+00  0.00000000E+00  0.00000000E+00
  0.00000000E+00  0.00000000E+00  0.00000000E+00
  0.00000000E+00  0.00000000E+00  0.00000000E+00
  0.00000000E+00  0.00000000E+00  0.00000000E+00
  0.00000000E+00  0.00000000E+00  0.00000000E+00
  0.00000000E+00  0.00000000E+00  0.00000000E+00
  0.00000000E+00  0.00000000E+00  0.00000000E+00
  0.00000000E+00  0.00000000E+00  0.00000000E+00
  0.00000000E+00  0.00000000E+00  0.00000000E+00
  0.00000000E+00  0.00000000E+00  0.00000000E+00
  0.00000000E+00  0.00000000E+00  0.00000000E+00
  0.00000000E+00  0.00000000E+00  0.00000000E+00
  0.00000000E+00  0.00000000E+00  0.00000000E+00
  0.00000000E+00  0.00000000E+00  0.00000000E+00
  0.00000000E+00  0.00000000E+00  0.00000000E+00
  0.00000000E+00  0.00000000E+00  0.00000000E+00
  0.00000000E+00  0.00000000E+00  0.00000000E+00
  0.00000000E+00  0.00000000E+00  0.00000000E+00
  0.00000000E+00  0.00000000E+00  0.00000000E+00
  0.00000000E+00  0.00000000E+00  0.00000000E+00
  0.00000000E+00  0.00000000E+00  0.00000000E+00
  0.00000000E+00  0.00000000E+00  0.00000000E+00
  0.00000000E+00  0.00000000E+00  0.00000000E+00
  0.00000000E+00  0.00000000E+00  0.00000000E+00
  0.00000000E+00  0.00000000E+00  0.00000000E+00
  0.00000000E+00  0.00000000E+00  0.00000000E+00
  0.00000000E+00  0.00000000E+00  0.00000000E+00
  0.00000000E+00  0.00000000E+00  0.00000000E+00
  0.00000000E+00  0.00000000E+00  0.00000000E+00
  0.00000000E+00  0.00000000E+00  0.00000000E+00
  0.00000000E+00  0.00000000E+00  0.00000000E+00
  0.00000000E+00  0.00000000E+00  0.00000000E+00
  0.00000000E+00  0.00000000E+00  0.00000000E+00
  0.00000000E+00  0.00000000E+00  0.00000000E+00
  0.00000000E+00  0.00000000E+00  0.00000000E+00
  0.00000000E+00  0.00000000E+00  0.00000000E+00
  0.00000000E+00  0.00000000E+00  0.00000000E+00
  0.00000000E+00  0.00000000E+00  0.00000000E+00
  0.00000000E+00  0.00000000E+00  0.00000000E+00
  0.00000000E+00  0.00000000E+00  0.00000000E+00
  0.00000000E+00  0.00000000E+00  0.00000000E+00
  0.00000000E+00  0.00000000E+00  0.00000000E+00
  0.00000000E+00  0.00000000E+00  0.00000000E+00
  0.00000000E+00  0.00000000E+00  0.00000000E+00
  0.00000000E+00  0.00000000E+00  0.00000000E+00
  0.00000000E+00  0.00000000E+00  0.00000000E+00
  0.00000000E+00  0.00000000E+00  0.00000000E+00
  0.00000000E+00  0.00000000E+00  0.00000000E+00
  0.00000000E+00  0.00000000E+00  0.00000000E+00
  0.00000000E+00  0.00000000E+00  0.00000000E+00
  0.00000000E+00  0.00000000E+00  0.00000000E+00
  0.00000000E+00  0.00000000E+00  0.00000000E+00
  0.00000000E+00  0.00000000E+00  0.00000000E+00
  0.00000000E+00  0.00000000E+00  0.00000000E+00
  0.00000000E+00  0.00000000E+00  0.00000000E+00
  0.00000000E+00  0.00000000E+00  0.00000000E+00
  0.00000000E+00  0.00000000E+00  0.00000000E+00
  0.00000000E+00  0.00000000E+00  0.00000000E+00
  0.00000000E+00  0.00000000E+00  0.00000000E+00
  0.00000000E+00  0.00000000E+00  0.00000000E+00
  0.00000000E+00  0.00000000E+00  0.00000000E+00
  0.00000000E+00  0.00000000E+00  0.00000000E+00
  0.00000000E+00  0.00000000E+00  0.00000000E+00
  0.00000000E+00  0.00000000E+00  0.00000000E+00
  0.00000000E+00  0.00000000E+00  0.00000000E+00
  0.00000000E+00  0.00000000E+00  0.00000000E+00
  0.00000000E+00  0.00000000E+00  0.00000000E+00
  0.00000000E+00  0.00000000E+00  0.00000000E+00
  0.00000000E+00  0.00000000E+00  0.00000000E+00
  0.00000000E+00  0.00000000E+00  0.00000000E+00
  0.00000000E+00  0.00000000E+00  0.00000000E+00
  0.00000000E+00  0.00000000E+00  0.00000000E+00
  0.00000000E+00  0.00000000E+00  0.00000000E+00
  0.00000000E+00  0.00000000E+00  0.00000000E+00
  0.00000000E+00  0.00000000E+00  0.00000000E+00
  0.00000000E+00  0.00000000E+00  0.00000000E+00
  0.00000000E+00  0.00000000E+00  0.00000000E+00
  0.00000000E+00  0.00000000E+00  0.00000000E+00
  0.00000000E+00  0.00000000E+00  0.00000000E+00
  0.00000000E+00  0.00000000E+00  0.00000000E+00
  0.00000000E+00  0.00000000E+00  0.00000000E+00
  0.00000000E+00  0.00000000E+00  0.00000000E+00
  0.00000000E+00  0.00000000E+00  0.00000000E+00
  0.00000000E+00  0.00000000E+00  0.00000000E+00
  0.00000000E+00  0.00000000E+00  0.00000000E+00
  0.00000000E+00  0.00000000E+00  0.00000000E+00
  0.00000000E+00  0.00000000E+00  0.00000000E+00
  0.00000000E+00  0.00000000E+00  0.00000000E+00
  0.00000000E+00  0.00000000E+00  0.00000000E+00
  0.00000000E+00  0.00000000E+00  0.00000000E+00
  0.00000000E+00  0.00000000E+00  0.00000000E+00
  0.00000000E+00  0.00000000E+00  0.00000000E+00
  0.00000000E+00  0.00000000E+00  0.00000000E+00
  0.00000000E+00  0.00000000E+00  0.00000000E+00
  0.00000000E+00  0.00000000E+00  0.00000000E+00
  0.00000000E+00  0.00000000E+00  0.00000000E+00
  0.00000000E+00  0.00000000E+00  0.00000000E+00
  0.00000000E+00  0.00000000E+00  0.00000000E+00
  0.00000000E+00  0.00000000E+00  0.00000000E+00
