In54 Cu36 Ag18 Se108                    
   1.0000000000000000     
    16.3685715386355781   -0.0600949073246074   -7.2713929273315632
    -3.1830149600802202   16.0527257877625864   -7.2751394541595165
    -0.0367649112825974   -0.0423691476651634   21.9803741037210507
   In   Cu   Ag   Se
    54    36    18   108
Direct
  0.1674116087212809  0.4978323587939215  0.9984698631250168
  0.4960537779549199  0.5017940485039816  0.9991140551524751
  0.8335235312496891  0.4973001117290181  0.9976375298435372
  0.1632121593231517  0.8276764020572855  0.9988054876718735
  0.5010436059000440  0.8240456244944667  0.9993256063277869
  0.8333174259903018  0.8332629650116488  0.0011798657837687
  0.1622182688135254  0.1722810182516596  0.9986427302960834
  0.5020944850187661  0.1739882609778007  0.0011338115195159
  0.8361775015304431  0.1674046191308562  0.9976272093369758
  0.1704223571842363  0.5011136376599126  0.3366453124152216
  0.4986986512909724  0.5055055068000556  0.3352810735331317
  0.8358460457319694  0.5026842158957621  0.3363819289800176
  0.1695154820028577  0.8328878337274972  0.3360449497145765
  0.5013077808747468  0.8319330303497381  0.3349731268603549
  0.8317689925582954  0.8342546099889319  0.3355899776458955
  0.1700965985227967  0.1697564792637678  0.3369041322802389
  0.4962284063865425  0.1658636601823034  0.3353805504775167
  0.8366550573260838  0.1638724227287085  0.3323190219567280
  0.1674042881678588  0.4958695932133708  0.6668224073189393
  0.4978853407727541  0.4965563761673835  0.6639859904333036
  0.8328560190674779  0.4995289912586856  0.6657595380660766
  0.1637718335669263  0.8342124705231910  0.6654933909487042
  0.5054064399735267  0.8315798874199132  0.6651042566097658
  0.8288045116845097  0.8359757237917691  0.6647131715481294
  0.1629937928794334  0.1683780324379285  0.6640337261565747
  0.5026956106295017  0.1690901606756512  0.6664609398112731
  0.8330036677067483  0.1653242571542393  0.6665909284016749
  0.2513748541872260  0.4208654835068018  0.1673408292313496
  0.5817211029858029  0.4220022646487323  0.1689220747952831
  0.9200986774743001  0.4163375999902641  0.1693077366605706
  0.2538115812956363  0.7474754532444905  0.1690779113755596
  0.5823601718310982  0.7473202010324513  0.1672526335698947
  0.9149538187882129  0.7479620098440378  0.1663985111530195
  0.2454252476042882  0.0828743129331926  0.1672895881925527
  0.5882604533751277  0.0823437114872974  0.1679856229082972
  0.9160369447991741  0.0866586316382651  0.1674737923867440
  0.2493145019781977  0.4142580670964549  0.4997047489599424
  0.5812486433971600  0.4194208955234586  0.5020640908880480
  0.9215099351582055  0.4169368700892875  0.5009924229691336
  0.2522426947490359  0.7500603551033223  0.4999960042220266
  0.5840633964765019  0.7518823081572279  0.5011067243533205
  0.9143563032773372  0.7520212134997308  0.4997900933596071
  0.2518419755801204  0.0859423738940492  0.5016536816500050
  0.5823425715656469  0.0798364770539166  0.5000301334584236
  0.9176347463717889  0.0841116941173610  0.5017313002231845
  0.2487340436786027  0.4148512838058949  0.8306063564135968
  0.5802997604663176  0.4157742110189702  0.8324075852051962
  0.9170291635260384  0.4136918270635661  0.8295961958777198
  0.2507641847460036  0.7423802397802675  0.8334785453185418
  0.5846006249549376  0.7464281554826826  0.8301761944625596
  0.9129197866317043  0.7493330857797673  0.8332842570785033
  0.2469340619282647  0.0906427210501661  0.8316611789624773
  0.5859811841552940  0.0848917027672300  0.8300726354567232
  0.9127533915401500  0.0840404175096623  0.8304948394276011
  0.9966280658482702  0.3324718239354709  0.9933488328254683
  0.3320950351425651  0.3369393475645950  0.9969293960103229
  0.0011174925158173  0.6613044846886780  0.9965110994365958
  0.3284484623942987  0.6602137636290664  0.9971795103863599
  0.6661071620270675  0.6693054684467583  0.0000138237471958
  0.9957576625079767  0.9996425057878611  0.9957311241253350
  0.9996884211588366  0.3363746384266690  0.3371325152891842
  0.3365090753720210  0.3363883864976387  0.3381990899599288
  0.0049130783172018  0.6709362660207603  0.3406033278791583
  0.3385386482203430  0.6677710004516939  0.3375944059536522
  0.6643952758189045  0.6701304556476373  0.3370681706102658
  0.3352281905873582  0.0018602804475805  0.3397003256424895
  0.6679909846689043  0.9955147929184207  0.3335269694009568
  0.0025057845596592  0.3333616429277626  0.6686131683840202
  0.3346684767034986  0.3322268336477663  0.6661875324990802
  0.6623399505192680  0.3302691745275723  0.6651162121475664
  0.6673687734862384  0.6664933944290041  0.6635370614399108
  0.9976426558857483  0.0033269479463911  0.6634483140140830
  0.6653346931844766  0.0009732123512052  0.6657272087183514
  0.4170030874338835  0.5833245680439845  0.1668640337850675
  0.7478771129078581  0.9110453514981813  0.1668043021819656
  0.7551259846523166  0.2555286289506853  0.1699373710670429
  0.0828031476217035  0.5817901063450677  0.4950875070868364
  0.4185780872328593  0.5841794040897454  0.4981510354952334
  0.7464590397654547  0.5859810670470083  0.5009488087896017
  0.0818655288302992  0.9122868677584108  0.5012628422714798
  0.4181521413678979  0.9166886196583661  0.4983028364636652
  0.7488441751670578  0.9168245412131597  0.4996088289199108
  0.0843087322315483  0.2543228402371724  0.5029806132421086
  0.4167331770298190  0.2498362061694550  0.5005839073094833
  0.0844068670187283  0.5802276413368901  0.8349953767884699
  0.4200478460539614  0.5790430563391809  0.8352630506922623
  0.7508845799596671  0.9159219165595474  0.8295393793305195
  0.0819307807298273  0.2503459278812059  0.8316043275213616
  0.4109783932914297  0.2518484953991660  0.8317689900681842
  0.7512804492639091  0.2508266008324114  0.8291814297378082
  0.6643742810496320  0.3307389482969185  0.9968210411404428
  0.3297940326871824  0.9989528194333062  0.9998076134349034
  0.6725674491557356  0.9985301537590985  0.0030160213011570
  0.6721777589544544  0.3349851120709175  0.3342480355077200
  0.0006998408164662  0.0019330921087786  0.3365386947272739
  0.9953896466286665  0.6601016844759471  0.6635071221205422
  0.3303771500011337  0.6624372509490826  0.6643958200258382
  0.3350535815099036  0.0028985316634120  0.6627121714840385
  0.0819614023251702  0.5835824665402143  0.1674985671379048
  0.7501014674779185  0.5876318697744409  0.1707446105724060
  0.0829050377258298  0.9163326245640349  0.1619247112913911
  0.4232785825859509  0.9153159539440594  0.1709836020669186
  0.0840600089010266  0.2513569151568049  0.1685252253788434
  0.4107225768683804  0.2487579914908551  0.1647749601015178
  0.7531155892095995  0.2486505715395708  0.5012735453819772
  0.7491200953304897  0.5801138079990054  0.8326812655744789
  0.0786229201119681  0.9166508405847793  0.8320057000742906
  0.4174763586547670  0.9212271610117639  0.8359578246409569
  0.1151220922242686  0.4508451129367756  0.0770815382498924
  0.4471341190883962  0.4599333201175497  0.0829519965350372
  0.7922228069914539  0.4593602887120625  0.0853912832014174
  0.1183479394467071  0.7791004747536263  0.0798469916377940
  0.4473955268863747  0.7789206446660870  0.0778767817332735
  0.7812264600194396  0.7909921999299954  0.0837789257633617
  0.1141486144364734  0.1178258025610290  0.0762599255055605
  0.4597015562218729  0.1242912774088865  0.0831691209764571
  0.7901447864304814  0.1373034042307282  0.0875405195274226
  0.1164450175427660  0.4573776927119084  0.4168414109141594
  0.4491343541655723  0.4602563280403729  0.4170793991556394
  0.7926055786742623  0.4691614947929921  0.4263181172388357
  0.1185688655673971  0.7934757346666714  0.4198758051332518
  0.4503718683469273  0.7922323065930570  0.4182777988197657
  0.7790354311758847  0.7923572435402946  0.4171545647703283
  0.1230178716617019  0.1351086808841231  0.4238227512367132
  0.4487129337335958  0.1243312633556926  0.4199026191988082
  0.7847961736740601  0.1155877057448080  0.4106135308877725
  0.1142226853404722  0.4576184238839929  0.7501366818233564
  0.4474632432812342  0.4569570838274544  0.7482686898299278
  0.7817640325223749  0.4472605072119293  0.7420747927953641
  0.1241605546199906  0.7884516298513304  0.7503894433257017
  0.4571851951857226  0.7924959817513937  0.7486889799566683
  0.7806405763679791  0.7907003471547611  0.7475589932541098
  0.1112026217662745  0.1274217584268058  0.7468465402722444
  0.4563210758823502  0.1362806171632300  0.7549869898616421
  0.7790598512543738  0.1248653919440414  0.7477002545154434
  0.3022480544746173  0.6224046097891645  0.0833761235759027
  0.6278168985900763  0.6267730756684102  0.0779717092858903
  0.9603954585880956  0.6263452726630518  0.0766411757449461
  0.2913884640683762  0.9553920604159813  0.0856899769876591
  0.6319885080939542  0.9502423821105026  0.0866820159852466
  0.9598869974854694  0.9638842073516898  0.0780291206661161
  0.2933909384936868  0.2971301696181712  0.0766545707328987
  0.6360048196984138  0.2960582725327328  0.0928105358093987
  0.9645472480016863  0.2961782532546593  0.0774003217823918
  0.3038218247208775  0.6258244603709642  0.4179786847942353
  0.6340986195101266  0.6273380468040344  0.4185338184376093
  0.9685330042508724  0.6282126698044408  0.4190745741266255
  0.3020503202462308  0.9596384075733084  0.4199774939557130
  0.6349095690129047  0.9573246290376147  0.4164249303429983
  0.9663772032180802  0.9552766272423838  0.4237308458344486
  0.3040841608240683  0.2930115649269283  0.4185544109149149
  0.6247441496980031  0.2927148744514838  0.4174811857849861
  0.9691687576794976  0.2904496568644035  0.4172112145589111
  0.3020221619852563  0.6172197768852783  0.7547350984314676
  0.6280802153646263  0.6231810894484084  0.7408928941527506
  0.9661968699551409  0.6220833615117201  0.7572839816114225
  0.2911125260370397  0.9620501760905142  0.7488294603454406
  0.6368388954968296  0.9583895605517654  0.7485553423798450
  0.9588469902323382  0.9619933787175938  0.7422078069911748
  0.2990687634542795  0.2903120622443609  0.7466223877574834
  0.6357049314286058  0.2942423447122877  0.7512431011335750
  0.9680117484769326  0.2891407681187204  0.7476124341934423
  0.2187769027083064  0.3733009030998318  0.2558914278718234
  0.5396888702335545  0.3759606357456775  0.2518226192764175
  0.8775316529414852  0.3682056798788196  0.2536695560229489
  0.2179485018334759  0.7033212788857739  0.2575837293121239
  0.5411106901003322  0.6971925351355210  0.2507700232895971
  0.8852830977348063  0.7071823101061696  0.2592628777804080
  0.2155208942794857  0.0381958890525027  0.2580252266469145
  0.5519425916124661  0.0413699990927583  0.2581893635893096
  0.8671492829693008  0.0290084771853643  0.2420930398896530
  0.2106763625156702  0.3638793525914821  0.5845495473902034
  0.5412114837991169  0.3632432078250147  0.5830202903288466
  0.8849086621073141  0.3725011148712269  0.5885754657097166
  0.2002970455464634  0.7012229811079962  0.5776180493214298
  0.5433422386842111  0.6963666507975290  0.5813451056609722
  0.8660562137939962  0.7024829282056047  0.5793344569447214
  0.1975802483062878  0.0339696184829847  0.5764924930281410
  0.5404549104330911  0.0311418672333446  0.5838742771372836
  0.8721937112251368  0.0318624169224577  0.5816420887793328
  0.2066854927046791  0.3637878368467469  0.9130595353691504
  0.5308948524319490  0.3676539119012929  0.9117974023956350
  0.8738982351453970  0.3647161821386717  0.9124839950053172
  0.2063883948700678  0.6948136930141189  0.9165106823705784
  0.5430138233431734  0.6940692855415946  0.9127502737897117
  0.8818330498818057  0.7036512843109222  0.9226913854193342
  0.2063451454023806  0.0450102718691738  0.9156039886560947
  0.5466787354274913  0.0460873854971027  0.9185491467587212
  0.8740130000350206  0.0307690934637890  0.9134148587797100
  0.0417087701592749  0.5515497608990074  0.2592521760054538
  0.3752747708860085  0.5554793018130297  0.2506167933995087
  0.7066357660191684  0.5534738241711423  0.2591210549156315
  0.0432224531057486  0.8752878949547664  0.2497103050656406
  0.3737709907613649  0.8840394306968875  0.2584709985572999
  0.7069198740163714  0.8816676712493958  0.2497051399742389
  0.0408177692077132  0.2187223251085939  0.2582774128606289
  0.3696583836708669  0.2158480810823420  0.2550133722220949
  0.7151341272378389  0.2119824245392721  0.2459809397326538
  0.0492297670003978  0.5445917277232439  0.5781620251151622
  0.3767160452124045  0.5427209999723814  0.5753399419603795
  0.7087267093198051  0.5513313891568430  0.5830652041557087
  0.0390177756918817  0.8860697477618089  0.5843850133562114
  0.3809057107281930  0.8778099453335457  0.5785922559144936
  0.7055748448574235  0.8876630993461703  0.5822271318812824
  0.0394276709687986  0.2205148852813466  0.5823476704579420
  0.3769920414183119  0.2193870349338951  0.5843395667652658
  0.7043350206543053  0.2138889660476053  0.5876097874194315
  0.0414467990513216  0.5475195477369184  0.9153542658109046
  0.3717374192788014  0.5498200103753206  0.9145730860021928
  0.7039857392433788  0.5483520311137795  0.9219599675187453
  0.0375040847052261  0.8808845382175150  0.9208050997248094
  0.3759528019946075  0.8716375664111240  0.9176047389097022
  0.7118438577154507  0.8760712408766551  0.9093098970581437
  0.0368509570608779  0.2182610525108188  0.9120091529188841
  0.3747282647940935  0.2222825802028510  0.9167714692985101
  0.7135857007569371  0.2128057357349462  0.9093454320789149

  0.00000000E+00  0.00000000E+00  0.00000000E+00
  0.00000000E+00  0.00000000E+00  0.00000000E+00
  0.00000000E+00  0.00000000E+00  0.00000000E+00
  0.00000000E+00  0.00000000E+00  0.00000000E+00
  0.00000000E+00  0.00000000E+00  0.00000000E+00
  0.00000000E+00  0.00000000E+00  0.00000000E+00
  0.00000000E+00  0.00000000E+00  0.00000000E+00
  0.00000000E+00  0.00000000E+00  0.00000000E+00
  0.00000000E+00  0.00000000E+00  0.00000000E+00
  0.00000000E+00  0.00000000E+00  0.00000000E+00
  0.00000000E+00  0.00000000E+00  0.00000000E+00
  0.00000000E+00  0.00000000E+00  0.00000000E+00
  0.00000000E+00  0.00000000E+00  0.00000000E+00
  0.00000000E+00  0.00000000E+00  0.00000000E+00
  0.00000000E+00  0.00000000E+00  0.00000000E+00
  0.00000000E+00  0.00000000E+00  0.00000000E+00
  0.00000000E+00  0.00000000E+00  0.00000000E+00
  0.00000000E+00  0.00000000E+00  0.00000000E+00
  0.00000000E+00  0.00000000E+00  0.00000000E+00
  0.00000000E+00  0.00000000E+00  0.00000000E+00
  0.00000000E+00  0.00000000E+00  0.00000000E+00
  0.00000000E+00  0.00000000E+00  0.00000000E+00
  0.00000000E+00  0.00000000E+00  0.00000000E+00
  0.00000000E+00  0.00000000E+00  0.00000000E+00
  0.00000000E+00  0.00000000E+00  0.00000000E+00
  0.00000000E+00  0.00000000E+00  0.00000000E+00
  0.00000000E+00  0.00000000E+00  0.00000000E+00
  0.00000000E+00  0.00000000E+00  0.00000000E+00
  0.00000000E+00  0.00000000E+00  0.00000000E+00
  0.00000000E+00  0.00000000E+00  0.00000000E+00
  0.00000000E+00  0.00000000E+00  0.00000000E+00
  0.00000000E+00  0.00000000E+00  0.00000000E+00
  0.00000000E+00  0.00000000E+00  0.00000000E+00
  0.00000000E+00  0.00000000E+00  0.00000000E+00
  0.00000000E+00  0.00000000E+00  0.00000000E+00
  0.00000000E+00  0.00000000E+00  0.00000000E+00
  0.00000000E+00  0.00000000E+00  0.00000000E+00
  0.00000000E+00  0.00000000E+00  0.00000000E+00
  0.00000000E+00  0.00000000E+00  0.00000000E+00
  0.00000000E+00  0.00000000E+00  0.00000000E+00
  0.00000000E+00  0.00000000E+00  0.00000000E+00
  0.00000000E+00  0.00000000E+00  0.00000000E+00
  0.00000000E+00  0.00000000E+00  0.00000000E+00
  0.00000000E+00  0.00000000E+00  0.00000000E+00
  0.00000000E+00  0.00000000E+00  0.00000000E+00
  0.00000000E+00  0.00000000E+00  0.00000000E+00
  0.00000000E+00  0.00000000E+00  0.00000000E+00
  0.00000000E+00  0.00000000E+00  0.00000000E+00
  0.00000000E+00  0.00000000E+00  0.00000000E+00
  0.00000000E+00  0.00000000E+00  0.00000000E+00
  0.00000000E+00  0.00000000E+00  0.00000000E+00
  0.00000000E+00  0.00000000E+00  0.00000000E+00
  0.00000000E+00  0.00000000E+00  0.00000000E+00
  0.00000000E+00  0.00000000E+00  0.00000000E+00
  0.00000000E+00  0.00000000E+00  0.00000000E+00
  0.00000000E+00  0.00000000E+00  0.00000000E+00
  0.00000000E+00  0.00000000E+00  0.00000000E+00
  0.00000000E+00  0.00000000E+00  0.00000000E+00
  0.00000000E+00  0.00000000E+00  0.00000000E+00
  0.00000000E+00  0.00000000E+00  0.00000000E+00
  0.00000000E+00  0.00000000E+00  0.00000000E+00
  0.00000000E+00  0.00000000E+00  0.00000000E+00
  0.00000000E+00  0.00000000E+00  0.00000000E+00
  0.00000000E+00  0.00000000E+00  0.00000000E+00
  0.00000000E+00  0.00000000E+00  0.00000000E+00
  0.00000000E+00  0.00000000E+00  0.00000000E+00
  0.00000000E+00  0.00000000E+00  0.00000000E+00
  0.00000000E+00  0.00000000E+00  0.00000000E+00
  0.00000000E+00  0.00000000E+00  0.00000000E+00
  0.00000000E+00  0.00000000E+00  0.00000000E+00
  0.00000000E+00  0.00000000E+00  0.00000000E+00
  0.00000000E+00  0.00000000E+00  0.00000000E+00
  0.00000000E+00  0.00000000E+00  0.00000000E+00
  0.00000000E+00  0.00000000E+00  0.00000000E+00
  0.00000000E+00  0.00000000E+00  0.00000000E+00
  0.00000000E+00  0.00000000E+00  0.00000000E+00
  0.00000000E+00  0.00000000E+00  0.00000000E+00
  0.00000000E+00  0.00000000E+00  0.00000000E+00
  0.00000000E+00  0.00000000E+00  0.00000000E+00
  0.00000000E+00  0.00000000E+00  0.00000000E+00
  0.00000000E+00  0.00000000E+00  0.00000000E+00
  0.00000000E+00  0.00000000E+00  0.00000000E+00
  0.00000000E+00  0.00000000E+00  0.00000000E+00
  0.00000000E+00  0.00000000E+00  0.00000000E+00
  0.00000000E+00  0.00000000E+00  0.00000000E+00
  0.00000000E+00  0.00000000E+00  0.00000000E+00
  0.00000000E+00  0.00000000E+00  0.00000000E+00
  0.00000000E+00  0.00000000E+00  0.00000000E+00
  0.00000000E+00  0.00000000E+00  0.00000000E+00
  0.00000000E+00  0.00000000E+00  0.00000000E+00
  0.00000000E+00  0.00000000E+00  0.00000000E+00
  0.00000000E+00  0.00000000E+00  0.00000000E+00
  0.00000000E+00  0.00000000E+00  0.00000000E+00
  0.00000000E+00  0.00000000E+00  0.00000000E+00
  0.00000000E+00  0.00000000E+00  0.00000000E+00
  0.00000000E+00  0.00000000E+00  0.00000000E+00
  0.00000000E+00  0.00000000E+00  0.00000000E+00
  0.00000000E+00  0.00000000E+00  0.00000000E+00
  0.00000000E+00  0.00000000E+00  0.00000000E+00
  0.00000000E+00  0.00000000E+00  0.00000000E+00
  0.00000000E+00  0.00000000E+00  0.00000000E+00
  0.00000000E+00  0.00000000E+00  0.00000000E+00
  0.00000000E+00  0.00000000E+00  0.00000000E+00
  0.00000000E+00  0.00000000E+00  0.00000000E+00
  0.00000000E+00  0.00000000E+00  0.00000000E+00
  0.00000000E+00  0.00000000E+00  0.00000000E+00
  0.00000000E+00  0.00000000E+00  0.00000000E+00
  0.00000000E+00  0.00000000E+00  0.00000000E+00
  0.00000000E+00  0.00000000E+00  0.00000000E+00
  0.00000000E+00  0.00000000E+00  0.00000000E+00
  0.00000000E+00  0.00000000E+00  0.00000000E+00
  0.00000000E+00  0.00000000E+00  0.00000000E+00
  0.00000000E+00  0.00000000E+00  0.00000000E+00
  0.00000000E+00  0.00000000E+00  0.00000000E+00
  0.00000000E+00  0.00000000E+00  0.00000000E+00
  0.00000000E+00  0.00000000E+00  0.00000000E+00
  0.00000000E+00  0.00000000E+00  0.00000000E+00
  0.00000000E+00  0.00000000E+00  0.00000000E+00
  0.00000000E+00  0.00000000E+00  0.00000000E+00
  0.00000000E+00  0.00000000E+00  0.00000000E+00
  0.00000000E+00  0.00000000E+00  0.00000000E+00
  0.00000000E+00  0.00000000E+00  0.00000000E+00
  0.00000000E+00  0.00000000E+00  0.00000000E+00
  0.00000000E+00  0.00000000E+00  0.00000000E+00
  0.00000000E+00  0.00000000E+00  0.00000000E+00
  0.00000000E+00  0.00000000E+00  0.00000000E+00
  0.00000000E+00  0.00000000E+00  0.00000000E+00
  0.00000000E+00  0.00000000E+00  0.00000000E+00
  0.00000000E+00  0.00000000E+00  0.00000000E+00
  0.00000000E+00  0.00000000E+00  0.00000000E+00
  0.00000000E+00  0.00000000E+00  0.00000000E+00
  0.00000000E+00  0.00000000E+00  0.00000000E+00
  0.00000000E+00  0.00000000E+00  0.00000000E+00
  0.00000000E+00  0.00000000E+00  0.00000000E+00
  0.00000000E+00  0.00000000E+00  0.00000000E+00
  0.00000000E+00  0.00000000E+00  0.00000000E+00
  0.00000000E+00  0.00000000E+00  0.00000000E+00
  0.00000000E+00  0.00000000E+00  0.00000000E+00
  0.00000000E+00  0.00000000E+00  0.00000000E+00
  0.00000000E+00  0.00000000E+00  0.00000000E+00
  0.00000000E+00  0.00000000E+00  0.00000000E+00
  0.00000000E+00  0.00000000E+00  0.00000000E+00
  0.00000000E+00  0.00000000E+00  0.00000000E+00
  0.00000000E+00  0.00000000E+00  0.00000000E+00
  0.00000000E+00  0.00000000E+00  0.00000000E+00
  0.00000000E+00  0.00000000E+00  0.00000000E+00
  0.00000000E+00  0.00000000E+00  0.00000000E+00
  0.00000000E+00  0.00000000E+00  0.00000000E+00
  0.00000000E+00  0.00000000E+00  0.00000000E+00
  0.00000000E+00  0.00000000E+00  0.00000000E+00
  0.00000000E+00  0.00000000E+00  0.00000000E+00
  0.00000000E+00  0.00000000E+00  0.00000000E+00
  0.00000000E+00  0.00000000E+00  0.00000000E+00
  0.00000000E+00  0.00000000E+00  0.00000000E+00
  0.00000000E+00  0.00000000E+00  0.00000000E+00
  0.00000000E+00  0.00000000E+00  0.00000000E+00
  0.00000000E+00  0.00000000E+00  0.00000000E+00
  0.00000000E+00  0.00000000E+00  0.00000000E+00
  0.00000000E+00  0.00000000E+00  0.00000000E+00
  0.00000000E+00  0.00000000E+00  0.00000000E+00
  0.00000000E+00  0.00000000E+00  0.00000000E+00
  0.00000000E+00  0.00000000E+00  0.00000000E+00
  0.00000000E+00  0.00000000E+00  0.00000000E+00
  0.00000000E+00  0.00000000E+00  0.00000000E+00
  0.00000000E+00  0.00000000E+00  0.00000000E+00
  0.00000000E+00  0.00000000E+00  0.00000000E+00
  0.00000000E+00  0.00000000E+00  0.00000000E+00
  0.00000000E+00  0.00000000E+00  0.00000000E+00
  0.00000000E+00  0.00000000E+00  0.00000000E+00
  0.00000000E+00  0.00000000E+00  0.00000000E+00
  0.00000000E+00  0.00000000E+00  0.00000000E+00
  0.00000000E+00  0.00000000E+00  0.00000000E+00
  0.00000000E+00  0.00000000E+00  0.00000000E+00
  0.00000000E+00  0.00000000E+00  0.00000000E+00
  0.00000000E+00  0.00000000E+00  0.00000000E+00
  0.00000000E+00  0.00000000E+00  0.00000000E+00
  0.00000000E+00  0.00000000E+00  0.00000000E+00
  0.00000000E+00  0.00000000E+00  0.00000000E+00
  0.00000000E+00  0.00000000E+00  0.00000000E+00
  0.00000000E+00  0.00000000E+00  0.00000000E+00
  0.00000000E+00  0.00000000E+00  0.00000000E+00
  0.00000000E+00  0.00000000E+00  0.00000000E+00
  0.00000000E+00  0.00000000E+00  0.00000000E+00
  0.00000000E+00  0.00000000E+00  0.00000000E+00
  0.00000000E+00  0.00000000E+00  0.00000000E+00
  0.00000000E+00  0.00000000E+00  0.00000000E+00
  0.00000000E+00  0.00000000E+00  0.00000000E+00
  0.00000000E+00  0.00000000E+00  0.00000000E+00
  0.00000000E+00  0.00000000E+00  0.00000000E+00
  0.00000000E+00  0.00000000E+00  0.00000000E+00
  0.00000000E+00  0.00000000E+00  0.00000000E+00
  0.00000000E+00  0.00000000E+00  0.00000000E+00
  0.00000000E+00  0.00000000E+00  0.00000000E+00
  0.00000000E+00  0.00000000E+00  0.00000000E+00
  0.00000000E+00  0.00000000E+00  0.00000000E+00
  0.00000000E+00  0.00000000E+00  0.00000000E+00
  0.00000000E+00  0.00000000E+00  0.00000000E+00
  0.00000000E+00  0.00000000E+00  0.00000000E+00
  0.00000000E+00  0.00000000E+00  0.00000000E+00
  0.00000000E+00  0.00000000E+00  0.00000000E+00
  0.00000000E+00  0.00000000E+00  0.00000000E+00
  0.00000000E+00  0.00000000E+00  0.00000000E+00
  0.00000000E+00  0.00000000E+00  0.00000000E+00
  0.00000000E+00  0.00000000E+00  0.00000000E+00
  0.00000000E+00  0.00000000E+00  0.00000000E+00
  0.00000000E+00  0.00000000E+00  0.00000000E+00
  0.00000000E+00  0.00000000E+00  0.00000000E+00
  0.00000000E+00  0.00000000E+00  0.00000000E+00
  0.00000000E+00  0.00000000E+00  0.00000000E+00
  0.00000000E+00  0.00000000E+00  0.00000000E+00
  0.00000000E+00  0.00000000E+00  0.00000000E+00
  0.00000000E+00  0.00000000E+00  0.00000000E+00
  0.00000000E+00  0.00000000E+00  0.00000000E+00
  0.00000000E+00  0.00000000E+00  0.00000000E+00
  0.00000000E+00  0.00000000E+00  0.00000000E+00
  0.00000000E+00  0.00000000E+00  0.00000000E+00
