In48 Ga6 Cu18 Ag36 Se108                
   1.0000000000000000     
    16.5657269801098010   -0.0120097315874083   -7.4154413141598781
    -3.3069366433247200   16.2292934874601116   -7.4423243481246146
    -0.0551405273623143   -0.0507074187906099   22.1005277530983264
   In   Ga   Cu   Ag   Se
    48     6    18    36   108
Direct
  0.1682803371785369  0.5007434400843778  0.9973458225390601
  0.4954414887175602  0.5015374637324186  0.9976276589224966
  0.8333209678361087  0.4997645030619182  0.9971499340510945
  0.1653683512020336  0.8252135724453566  0.9972617745332073
  0.4949017211816411  0.8279823625929197  0.9946907895661852
  0.8326225697004546  0.8316896609873865  0.9987191931270303
  0.1696360616601780  0.1699590702614486  0.9981950613088983
  0.4969398169886219  0.1635900973899922  0.9969711823116256
  0.8305042088613490  0.1667172033043585  0.9980072248453737
  0.1679185585417429  0.5034563090755455  0.3372041333062370
  0.5058059955752512  0.5001448682310965  0.3383389501890477
  0.8289490773178443  0.4972489215515168  0.3329786745918355
  0.1701941316537088  0.8374856380144280  0.3382701812507634
  0.5036648286873131  0.8414104901020352  0.3370217219271154
  0.8315334606093856  0.8401583159321149  0.3355993458172861
  0.5042123096374596  0.1620674945589258  0.3342098989870408
  0.8301350436434447  0.1648544573577979  0.3365838087423043
  0.1668910432071442  0.4955691724592342  0.6682617502878472
  0.1657200119141109  0.8413540666879840  0.6681916652152893
  0.4970820220365795  0.8318468349895625  0.6640437723273251
  0.8360274794285658  0.8361553542181355  0.6662507094424654
  0.1618345221744306  0.1650941367708469  0.6650433235057491
  0.5040593951834254  0.1721028104986075  0.6683704919586546
  0.8365234922038951  0.1698240789403371  0.6676215112327242
  0.2540552588045273  0.4202386731771313  0.1676888233416349
  0.5807619335077518  0.4129400357513688  0.1636405953074345
  0.9139909206637071  0.4147572784818863  0.1672191854616827
  0.2511449394081637  0.7513753457543046  0.1667123747138248
  0.5792404623926473  0.7534957307992656  0.1671507410324509
  0.9176861625921831  0.7496325390692817  0.1651776483494274
  0.2506263260907531  0.0817435455944988  0.1680797879243769
  0.5860126102436425  0.0802913522131874  0.1648589589493810
  0.9143259179605323  0.0841745691920792  0.1676354927061254
  0.2495679928625663  0.4088685992224157  0.5002991493637481
  0.5921917283665579  0.4162360430956156  0.5079077656317992
  0.9133882157461670  0.4165196173899588  0.5026153432933640
  0.5915731638074817  0.7534428939674029  0.5024071707346280
  0.9142495917989280  0.7543944716057212  0.5009788530285633
  0.2510504230042798  0.0880833700591737  0.5009830509198068
  0.5882100114021753  0.0869036903208666  0.5012269300093095
  0.2482149692935991  0.4169309576643414  0.8323562401401503
  0.5826138864609192  0.4165895317515478  0.8300856598910116
  0.9181542789805661  0.4162841414465390  0.8308474495735894
  0.2471194086522814  0.7419235889075679  0.8295051812345520
  0.5777733694753593  0.7460747335231517  0.8304365837762546
  0.9176675697204502  0.7420958175070211  0.8297898988003141
  0.5855884645374800  0.0845901927957726  0.8316753495720306
  0.9178151945503004  0.0882671015438277  0.8318022265556095
  0.1680365546138916  0.1629691312725470  0.3330350759421137
  0.4981225006450813  0.4951458332465961  0.6678784665758357
  0.8345967442185511  0.4931771264555422  0.6649005404993531
  0.2472046841100308  0.7563831687955798  0.5035699724352298
  0.9137121383056339  0.0813986423148449  0.5022900682911455
  0.2450530483864526  0.0880966897740549  0.8331762515022731
  0.3274909008368212  0.3293382802371028  0.9925571069112706
  0.0003251044125747  0.6644232529009884  0.9964494115581743
  0.3294069762026766  0.6630138680951347  0.9925635487049220
  0.6685394882115716  0.0012940052555095  0.9998207017263994
  0.3326719746665887  0.0037734781048968  0.3341829157657941
  0.6742915329246344  0.0053455368850237  0.3428623979330823
  0.3369138281436648  0.3386373923898560  0.6699103189059272
  0.6683496396805779  0.3334861339890907  0.6670992948490593
  0.0014399590124157  0.0063779739030210  0.6646756505464779
  0.7472861255356094  0.2438004718409061  0.1624346461798467
  0.7549718791281137  0.5835801420539823  0.5055086655564835
  0.0794897954032407  0.9203457351824866  0.5040886554314454
  0.7565389212892697  0.9247523002861868  0.5019021180595686
  0.7524786159782835  0.2452686533175381  0.5033872246956008
  0.0820132046258593  0.5814454415780190  0.8355911097801041
  0.4123718290554450  0.5753898354976315  0.8284606719087080
  0.0897114416314650  0.2473518583366783  0.8342300408842291
  0.7493791842854804  0.2540188036794717  0.8304322622584621
  0.9994004304002360  0.3353859855923247  0.9992132680300685
  0.6639738155669264  0.3289747451252722  0.9978828677787988
  0.6604275284726526  0.6660076326016195  0.9977303827416222
  0.0029848931455589  0.9969757890117279  0.9972027515672934
  0.3269858984506939  0.9960821565947100  0.9974419114219586
  0.9975974277559985  0.3303905446978703  0.3294045155548844
  0.3384575986143119  0.3298644136196032  0.3358691901908415
  0.6706119609303940  0.3283355124032923  0.3376919109900882
  0.0079124609722356  0.6778315675766748  0.3410998371579055
  0.3367553265297687  0.6694191796619364  0.3406906217710102
  0.6654004222392587  0.6701474713697237  0.3378944848698922
  0.9996233413101834  0.0020405179791823  0.3399121406397754
  0.9966803235132105  0.3327954128829944  0.6666684067209019
  0.9934214569371491  0.6589905878999645  0.6661883748227950
  0.3309220248566334  0.6581984667632952  0.6602030610924601
  0.6705640876590238  0.6590638012353836  0.6666576385025778
  0.3295862191314001  0.0040179450658400  0.6650194618820322
  0.6715656850156932  0.0022259101240110  0.6658486505475310
  0.0798265773839049  0.5868594015992485  0.1680047473303645
  0.4142211122686703  0.5772371852142513  0.1598398046657792
  0.7532212474766027  0.5851816502823652  0.1692462313111633
  0.0869023162590850  0.9181297391862486  0.1684438211562593
  0.4241809936816878  0.9174374699543577  0.1715783619680877
  0.7421096926754700  0.9161113991506085  0.1641361957422660
  0.0885659824378422  0.2522576888879868  0.1716192566606409
  0.4152821455199884  0.2510103302006073  0.1626289406703449
  0.0848077996226877  0.5888954305616139  0.5010560664376911
  0.4165723717457155  0.5872590421090962  0.5021402614813582
  0.4127324237854566  0.9183902284515071  0.5000871326636016
  0.0806835612975974  0.2477791727922138  0.5001219502290226
  0.4210964408711462  0.2507448960728524  0.5032658504596697
  0.7520795460437526  0.5788073137881398  0.8264294225800555
  0.0811667427248395  0.9177968568417185  0.8267912099587704
  0.4167316092695899  0.9234869494499947  0.8336322793591933
  0.7482537194019656  0.9154407548425780  0.8355726351862813
  0.4072288931669164  0.2514747921126599  0.8321708336809905
  0.1267729872402938  0.4626285415016795  0.0840759161890929
  0.4478719642172919  0.4445733504752951  0.0724595473837439
  0.7906983176761528  0.4583545796972075  0.0815609047353263
  0.1163479238427314  0.7830159604305109  0.0784460868831829
  0.4464235500376290  0.7827745043029353  0.0750243085535942
  0.7890757649092492  0.7908252121972339  0.0826768457896847
  0.1278579405074609  0.1263157301665956  0.0823142514685671
  0.4564471504908383  0.1205500051802488  0.0816144221550559
  0.7820431724802575  0.1237774438989305  0.0813743251362453
  0.1252836891980209  0.4570671689311254  0.4190684561064586
  0.4641900404004389  0.4575573111621409  0.4229787933527049
  0.7881071138109732  0.4653536170190762  0.4234078875032310
  0.1311858018461081  0.8060684271079523  0.4314117224170957
  0.4638431433856951  0.7953955448431671  0.4202272088319461
  0.7875146753833775  0.8022725518959675  0.4216845542383396
  0.1264477043623913  0.1275002574392374  0.4119407258106662
  0.4532017822105630  0.1177072897384619  0.4131918454102887
  0.7908169947697559  0.1237827665418507  0.4257902128416404
  0.1190782265011805  0.4639321776431302  0.7551522473946335
  0.4511635293577214  0.4586630046767368  0.7463358684774946
  0.7880241504392487  0.4491203508566386  0.7380683307125580
  0.1218651536605009  0.7860507485540467  0.7448962447487446
  0.4530282709502060  0.7911346906502530  0.7475954108641218
  0.7938315390578552  0.7914897201423159  0.7500665945430356
  0.1211801740013954  0.1249011451279287  0.7531912850274480
  0.4584528634357810  0.1284652431431610  0.7503875198830912
  0.7897695267722611  0.1363175179654306  0.7542498876067043
  0.2952194144866880  0.6287761738597268  0.0762412060038642
  0.6235645615289158  0.6262666515118767  0.0858479832757268
  0.9601923003957396  0.6269934625377829  0.0754189299960544
  0.2911393704180441  0.9531509799108164  0.0839632332396221
  0.6224428602737291  0.9556904717307830  0.0716723204171856
  0.9581508296491634  0.9590362969300656  0.0828881693573749
  0.2954223366898177  0.2974206396935486  0.0776508913983704
  0.6300602942568005  0.2854217056046551  0.0857641148014849
  0.9598070488561063  0.2906919008972437  0.0844154390189402
  0.2880566695228950  0.6369709548126892  0.4263749185882872
  0.6377343996447919  0.6221437054297638  0.4266209273919443
  0.9545518151803307  0.6263576162676969  0.4155780415224015
  0.2953464662317913  0.9658939254966583  0.4134302230964124
  0.6390402247729057  0.9626411116965699  0.4208934328386391
  0.9616656880188330  0.9647442580997563  0.4286468570779220
  0.2863438435091155  0.2808090712669085  0.4117015206618291
  0.6350815309617417  0.2854150313894053  0.4253729735953797
  0.9551856360886148  0.2918043699070481  0.4169596418808084
  0.2977114640060918  0.6175615873369082  0.7507806902507426
  0.6155435677947878  0.6152224941802231  0.7441717009803384
  0.9586956049537392  0.6081059793664281  0.7496038180843385
  0.2887256202374573  0.9724048059187638  0.7564275130479103
  0.6247373371604468  0.9567097275475760  0.7463730498522594
  0.9603331945762079  0.9654379123608336  0.7417954439000027
  0.2881189395930477  0.2942227496237919  0.7410665849957425
  0.6362886003824144  0.2947478527174923  0.7495250863124809
  0.9712724352593298  0.2886997776284943  0.7581416203373337
  0.2145326523735278  0.3795260577197510  0.2541814529036586
  0.5451175492331259  0.3731684372725326  0.2523537749310947
  0.8631418471033214  0.3642278562027528  0.2436451060031004
  0.2106200045423847  0.7097026711535079  0.2528578325351205
  0.5379180040403426  0.7094736179656209  0.2504651919350778
  0.8766142055313395  0.7136023409869736  0.2532879978936364
  0.2142913061798666  0.0450348968564285  0.2590819603603194
  0.5571572184877880  0.0379379452189994  0.2569212827691203
  0.8726182484621887  0.0398387206167925  0.2512816826569946
  0.2140357061019955  0.3679955426575816  0.5890454720306835
  0.5490433160552186  0.3781830253537919  0.5958644675976927
  0.8650524822897623  0.3695259704857321  0.5819801688716595
  0.2106682912365514  0.7163610911065348  0.5828813778772002
  0.5474330750183398  0.7096527250635418  0.5849148730931546
  0.8696474742335027  0.7027432970730558  0.5801492911132726
  0.1977321225480040  0.0363416416031725  0.5757828478114604
  0.5421335369162037  0.0436575254819545  0.5828298753099190
  0.8780261588841967  0.0384677172636714  0.5823869278431744
  0.2077774735901414  0.3656798725922457  0.9141846496397079
  0.5387711333879324  0.3748483907139288  0.9140140910487773
  0.8683185618325453  0.3691276828310350  0.9095917640671232
  0.2050381903786445  0.6938234047729139  0.9125540550798661
  0.5282741242559439  0.6951843200474812  0.9068800627626388
  0.8811202149107942  0.7038476745868394  0.9193872219689112
  0.2089546866870293  0.0440892572637637  0.9105332398722012
  0.5519133480665346  0.0410581236382512  0.9202515141381511
  0.8763675737832202  0.0419901312461590  0.9147197847822071
  0.0392657468315534  0.5431704682735656  0.2524757024253290
  0.3811918231754845  0.5459905700040650  0.2549057313303678
  0.7043719602859682  0.5423312372375335  0.2495302613697490
  0.0423805459544582  0.8771886982292543  0.2530428105471572
  0.3724517505347222  0.8858408584611510  0.2570712108731712
  0.7027975597881664  0.8859680217793766  0.2556788944069623
  0.0496531001951510  0.2032735566713626  0.2542891280544026
  0.3799160582333982  0.2051419542760513  0.2487659883916180
  0.7115843805584490  0.2086627967597607  0.2449558917302284
  0.0433030352868826  0.5386800052256149  0.5826620410065217
  0.3815531198989390  0.5311378595406779  0.5841441976952524
  0.7234988151590187  0.5401720262037273  0.5857642789821327
  0.0392727692935253  0.8874131234997833  0.5846194421372104
  0.3671590599115362  0.8719675591544274  0.5802427442651776
  0.7160137876463892  0.8819995592004091  0.5783298783454001
  0.0302751934308105  0.2007783551041840  0.5782546214074102
  0.3741966433135815  0.2195440700736526  0.5920342986398381
  0.7108935415092219  0.2198371514945876  0.5865034606914605
  0.0409092960734370  0.5494822664879706  0.9163309692008070
  0.3721655057706315  0.5490764942422928  0.9130476861180838
  0.7075937801893275  0.5434117426365290  0.9140034861415955
  0.0431656083947658  0.8695706620497106  0.9110321650097148
  0.3695094377205024  0.8714590217078424  0.9115155998160347
  0.7024481943611107  0.8779364475770848  0.9204446586353328
  0.0460095927278559  0.2140338396954249  0.9125110835086048
  0.3640303796317070  0.2079134530248226  0.9154389560258736
  0.7115937586960825  0.2123093474229378  0.9084324753373352

  0.00000000E+00  0.00000000E+00  0.00000000E+00
  0.00000000E+00  0.00000000E+00  0.00000000E+00
  0.00000000E+00  0.00000000E+00  0.00000000E+00
  0.00000000E+00  0.00000000E+00  0.00000000E+00
  0.00000000E+00  0.00000000E+00  0.00000000E+00
  0.00000000E+00  0.00000000E+00  0.00000000E+00
  0.00000000E+00  0.00000000E+00  0.00000000E+00
  0.00000000E+00  0.00000000E+00  0.00000000E+00
  0.00000000E+00  0.00000000E+00  0.00000000E+00
  0.00000000E+00  0.00000000E+00  0.00000000E+00
  0.00000000E+00  0.00000000E+00  0.00000000E+00
  0.00000000E+00  0.00000000E+00  0.00000000E+00
  0.00000000E+00  0.00000000E+00  0.00000000E+00
  0.00000000E+00  0.00000000E+00  0.00000000E+00
  0.00000000E+00  0.00000000E+00  0.00000000E+00
  0.00000000E+00  0.00000000E+00  0.00000000E+00
  0.00000000E+00  0.00000000E+00  0.00000000E+00
  0.00000000E+00  0.00000000E+00  0.00000000E+00
  0.00000000E+00  0.00000000E+00  0.00000000E+00
  0.00000000E+00  0.00000000E+00  0.00000000E+00
  0.00000000E+00  0.00000000E+00  0.00000000E+00
  0.00000000E+00  0.00000000E+00  0.00000000E+00
  0.00000000E+00  0.00000000E+00  0.00000000E+00
  0.00000000E+00  0.00000000E+00  0.00000000E+00
  0.00000000E+00  0.00000000E+00  0.00000000E+00
  0.00000000E+00  0.00000000E+00  0.00000000E+00
  0.00000000E+00  0.00000000E+00  0.00000000E+00
  0.00000000E+00  0.00000000E+00  0.00000000E+00
  0.00000000E+00  0.00000000E+00  0.00000000E+00
  0.00000000E+00  0.00000000E+00  0.00000000E+00
  0.00000000E+00  0.00000000E+00  0.00000000E+00
  0.00000000E+00  0.00000000E+00  0.00000000E+00
  0.00000000E+00  0.00000000E+00  0.00000000E+00
  0.00000000E+00  0.00000000E+00  0.00000000E+00
  0.00000000E+00  0.00000000E+00  0.00000000E+00
  0.00000000E+00  0.00000000E+00  0.00000000E+00
  0.00000000E+00  0.00000000E+00  0.00000000E+00
  0.00000000E+00  0.00000000E+00  0.00000000E+00
  0.00000000E+00  0.00000000E+00  0.00000000E+00
  0.00000000E+00  0.00000000E+00  0.00000000E+00
  0.00000000E+00  0.00000000E+00  0.00000000E+00
  0.00000000E+00  0.00000000E+00  0.00000000E+00
  0.00000000E+00  0.00000000E+00  0.00000000E+00
  0.00000000E+00  0.00000000E+00  0.00000000E+00
  0.00000000E+00  0.00000000E+00  0.00000000E+00
  0.00000000E+00  0.00000000E+00  0.00000000E+00
  0.00000000E+00  0.00000000E+00  0.00000000E+00
  0.00000000E+00  0.00000000E+00  0.00000000E+00
  0.00000000E+00  0.00000000E+00  0.00000000E+00
  0.00000000E+00  0.00000000E+00  0.00000000E+00
  0.00000000E+00  0.00000000E+00  0.00000000E+00
  0.00000000E+00  0.00000000E+00  0.00000000E+00
  0.00000000E+00  0.00000000E+00  0.00000000E+00
  0.00000000E+00  0.00000000E+00  0.00000000E+00
  0.00000000E+00  0.00000000E+00  0.00000000E+00
  0.00000000E+00  0.00000000E+00  0.00000000E+00
  0.00000000E+00  0.00000000E+00  0.00000000E+00
  0.00000000E+00  0.00000000E+00  0.00000000E+00
  0.00000000E+00  0.00000000E+00  0.00000000E+00
  0.00000000E+00  0.00000000E+00  0.00000000E+00
  0.00000000E+00  0.00000000E+00  0.00000000E+00
  0.00000000E+00  0.00000000E+00  0.00000000E+00
  0.00000000E+00  0.00000000E+00  0.00000000E+00
  0.00000000E+00  0.00000000E+00  0.00000000E+00
  0.00000000E+00  0.00000000E+00  0.00000000E+00
  0.00000000E+00  0.00000000E+00  0.00000000E+00
  0.00000000E+00  0.00000000E+00  0.00000000E+00
  0.00000000E+00  0.00000000E+00  0.00000000E+00
  0.00000000E+00  0.00000000E+00  0.00000000E+00
  0.00000000E+00  0.00000000E+00  0.00000000E+00
  0.00000000E+00  0.00000000E+00  0.00000000E+00
  0.00000000E+00  0.00000000E+00  0.00000000E+00
  0.00000000E+00  0.00000000E+00  0.00000000E+00
  0.00000000E+00  0.00000000E+00  0.00000000E+00
  0.00000000E+00  0.00000000E+00  0.00000000E+00
  0.00000000E+00  0.00000000E+00  0.00000000E+00
  0.00000000E+00  0.00000000E+00  0.00000000E+00
  0.00000000E+00  0.00000000E+00  0.00000000E+00
  0.00000000E+00  0.00000000E+00  0.00000000E+00
  0.00000000E+00  0.00000000E+00  0.00000000E+00
  0.00000000E+00  0.00000000E+00  0.00000000E+00
  0.00000000E+00  0.00000000E+00  0.00000000E+00
  0.00000000E+00  0.00000000E+00  0.00000000E+00
  0.00000000E+00  0.00000000E+00  0.00000000E+00
  0.00000000E+00  0.00000000E+00  0.00000000E+00
  0.00000000E+00  0.00000000E+00  0.00000000E+00
  0.00000000E+00  0.00000000E+00  0.00000000E+00
  0.00000000E+00  0.00000000E+00  0.00000000E+00
  0.00000000E+00  0.00000000E+00  0.00000000E+00
  0.00000000E+00  0.00000000E+00  0.00000000E+00
  0.00000000E+00  0.00000000E+00  0.00000000E+00
  0.00000000E+00  0.00000000E+00  0.00000000E+00
  0.00000000E+00  0.00000000E+00  0.00000000E+00
  0.00000000E+00  0.00000000E+00  0.00000000E+00
  0.00000000E+00  0.00000000E+00  0.00000000E+00
  0.00000000E+00  0.00000000E+00  0.00000000E+00
  0.00000000E+00  0.00000000E+00  0.00000000E+00
  0.00000000E+00  0.00000000E+00  0.00000000E+00
  0.00000000E+00  0.00000000E+00  0.00000000E+00
  0.00000000E+00  0.00000000E+00  0.00000000E+00
  0.00000000E+00  0.00000000E+00  0.00000000E+00
  0.00000000E+00  0.00000000E+00  0.00000000E+00
  0.00000000E+00  0.00000000E+00  0.00000000E+00
  0.00000000E+00  0.00000000E+00  0.00000000E+00
  0.00000000E+00  0.00000000E+00  0.00000000E+00
  0.00000000E+00  0.00000000E+00  0.00000000E+00
  0.00000000E+00  0.00000000E+00  0.00000000E+00
  0.00000000E+00  0.00000000E+00  0.00000000E+00
  0.00000000E+00  0.00000000E+00  0.00000000E+00
  0.00000000E+00  0.00000000E+00  0.00000000E+00
  0.00000000E+00  0.00000000E+00  0.00000000E+00
  0.00000000E+00  0.00000000E+00  0.00000000E+00
  0.00000000E+00  0.00000000E+00  0.00000000E+00
  0.00000000E+00  0.00000000E+00  0.00000000E+00
  0.00000000E+00  0.00000000E+00  0.00000000E+00
  0.00000000E+00  0.00000000E+00  0.00000000E+00
  0.00000000E+00  0.00000000E+00  0.00000000E+00
  0.00000000E+00  0.00000000E+00  0.00000000E+00
  0.00000000E+00  0.00000000E+00  0.00000000E+00
  0.00000000E+00  0.00000000E+00  0.00000000E+00
  0.00000000E+00  0.00000000E+00  0.00000000E+00
  0.00000000E+00  0.00000000E+00  0.00000000E+00
  0.00000000E+00  0.00000000E+00  0.00000000E+00
  0.00000000E+00  0.00000000E+00  0.00000000E+00
  0.00000000E+00  0.00000000E+00  0.00000000E+00
  0.00000000E+00  0.00000000E+00  0.00000000E+00
  0.00000000E+00  0.00000000E+00  0.00000000E+00
  0.00000000E+00  0.00000000E+00  0.00000000E+00
  0.00000000E+00  0.00000000E+00  0.00000000E+00
  0.00000000E+00  0.00000000E+00  0.00000000E+00
  0.00000000E+00  0.00000000E+00  0.00000000E+00
  0.00000000E+00  0.00000000E+00  0.00000000E+00
  0.00000000E+00  0.00000000E+00  0.00000000E+00
  0.00000000E+00  0.00000000E+00  0.00000000E+00
  0.00000000E+00  0.00000000E+00  0.00000000E+00
  0.00000000E+00  0.00000000E+00  0.00000000E+00
  0.00000000E+00  0.00000000E+00  0.00000000E+00
  0.00000000E+00  0.00000000E+00  0.00000000E+00
  0.00000000E+00  0.00000000E+00  0.00000000E+00
  0.00000000E+00  0.00000000E+00  0.00000000E+00
  0.00000000E+00  0.00000000E+00  0.00000000E+00
  0.00000000E+00  0.00000000E+00  0.00000000E+00
  0.00000000E+00  0.00000000E+00  0.00000000E+00
  0.00000000E+00  0.00000000E+00  0.00000000E+00
  0.00000000E+00  0.00000000E+00  0.00000000E+00
  0.00000000E+00  0.00000000E+00  0.00000000E+00
  0.00000000E+00  0.00000000E+00  0.00000000E+00
  0.00000000E+00  0.00000000E+00  0.00000000E+00
  0.00000000E+00  0.00000000E+00  0.00000000E+00
  0.00000000E+00  0.00000000E+00  0.00000000E+00
  0.00000000E+00  0.00000000E+00  0.00000000E+00
  0.00000000E+00  0.00000000E+00  0.00000000E+00
  0.00000000E+00  0.00000000E+00  0.00000000E+00
  0.00000000E+00  0.00000000E+00  0.00000000E+00
  0.00000000E+00  0.00000000E+00  0.00000000E+00
  0.00000000E+00  0.00000000E+00  0.00000000E+00
  0.00000000E+00  0.00000000E+00  0.00000000E+00
  0.00000000E+00  0.00000000E+00  0.00000000E+00
  0.00000000E+00  0.00000000E+00  0.00000000E+00
  0.00000000E+00  0.00000000E+00  0.00000000E+00
  0.00000000E+00  0.00000000E+00  0.00000000E+00
  0.00000000E+00  0.00000000E+00  0.00000000E+00
  0.00000000E+00  0.00000000E+00  0.00000000E+00
  0.00000000E+00  0.00000000E+00  0.00000000E+00
  0.00000000E+00  0.00000000E+00  0.00000000E+00
  0.00000000E+00  0.00000000E+00  0.00000000E+00
  0.00000000E+00  0.00000000E+00  0.00000000E+00
  0.00000000E+00  0.00000000E+00  0.00000000E+00
  0.00000000E+00  0.00000000E+00  0.00000000E+00
  0.00000000E+00  0.00000000E+00  0.00000000E+00
  0.00000000E+00  0.00000000E+00  0.00000000E+00
  0.00000000E+00  0.00000000E+00  0.00000000E+00
  0.00000000E+00  0.00000000E+00  0.00000000E+00
  0.00000000E+00  0.00000000E+00  0.00000000E+00
  0.00000000E+00  0.00000000E+00  0.00000000E+00
  0.00000000E+00  0.00000000E+00  0.00000000E+00
  0.00000000E+00  0.00000000E+00  0.00000000E+00
  0.00000000E+00  0.00000000E+00  0.00000000E+00
  0.00000000E+00  0.00000000E+00  0.00000000E+00
  0.00000000E+00  0.00000000E+00  0.00000000E+00
  0.00000000E+00  0.00000000E+00  0.00000000E+00
  0.00000000E+00  0.00000000E+00  0.00000000E+00
  0.00000000E+00  0.00000000E+00  0.00000000E+00
  0.00000000E+00  0.00000000E+00  0.00000000E+00
  0.00000000E+00  0.00000000E+00  0.00000000E+00
  0.00000000E+00  0.00000000E+00  0.00000000E+00
  0.00000000E+00  0.00000000E+00  0.00000000E+00
  0.00000000E+00  0.00000000E+00  0.00000000E+00
  0.00000000E+00  0.00000000E+00  0.00000000E+00
  0.00000000E+00  0.00000000E+00  0.00000000E+00
  0.00000000E+00  0.00000000E+00  0.00000000E+00
  0.00000000E+00  0.00000000E+00  0.00000000E+00
  0.00000000E+00  0.00000000E+00  0.00000000E+00
  0.00000000E+00  0.00000000E+00  0.00000000E+00
  0.00000000E+00  0.00000000E+00  0.00000000E+00
  0.00000000E+00  0.00000000E+00  0.00000000E+00
  0.00000000E+00  0.00000000E+00  0.00000000E+00
  0.00000000E+00  0.00000000E+00  0.00000000E+00
  0.00000000E+00  0.00000000E+00  0.00000000E+00
  0.00000000E+00  0.00000000E+00  0.00000000E+00
  0.00000000E+00  0.00000000E+00  0.00000000E+00
  0.00000000E+00  0.00000000E+00  0.00000000E+00
  0.00000000E+00  0.00000000E+00  0.00000000E+00
  0.00000000E+00  0.00000000E+00  0.00000000E+00
  0.00000000E+00  0.00000000E+00  0.00000000E+00
  0.00000000E+00  0.00000000E+00  0.00000000E+00
  0.00000000E+00  0.00000000E+00  0.00000000E+00
  0.00000000E+00  0.00000000E+00  0.00000000E+00
  0.00000000E+00  0.00000000E+00  0.00000000E+00
  0.00000000E+00  0.00000000E+00  0.00000000E+00
  0.00000000E+00  0.00000000E+00  0.00000000E+00
  0.00000000E+00  0.00000000E+00  0.00000000E+00
  0.00000000E+00  0.00000000E+00  0.00000000E+00
  0.00000000E+00  0.00000000E+00  0.00000000E+00
  0.00000000E+00  0.00000000E+00  0.00000000E+00
  0.00000000E+00  0.00000000E+00  0.00000000E+00
