In42 Ga12 Cu6 Ag48 Se108                
   1.0000000000000000     
    16.6910142229374152   -0.0001627161291693   -7.6232611797901155
    -3.4920397644509547   16.3253060287891252   -7.6422288118432551
     0.0061797947197231    0.0075789247771152   22.0662102267861968
   In   Ga   Cu   Ag   Se
    42    12     6    48   108
Direct
  0.1663218936550592  0.4976516686111907  0.0000632002577774
  0.4993419370646279  0.4966885824515117  0.9990501738588691
  0.1630041811382839  0.8387740881764216  0.0024968698199856
  0.5009579818361303  0.8336095957068181  0.9980628880512086
  0.1632203605471503  0.1654365774398414  0.9998029272981839
  0.5010252116328502  0.1686682216100195  0.9994784565359396
  0.8377250560374776  0.1630292755115335  0.0009734919387867
  0.8401362935884080  0.4956362262235601  0.3362216278780821
  0.1681519151144855  0.8369632282847093  0.3382655249260651
  0.4984914348111857  0.8345660969767508  0.3341956174387235
  0.8352295537738641  0.8342360749581204  0.3332307393173437
  0.1648122547660122  0.1675706214708015  0.3332142486880443
  0.4915401873104273  0.1652415530184328  0.3310518173772081
  0.8420989742432354  0.1721312614316233  0.3335387299474348
  0.1649930243390401  0.4964760707695746  0.6647663414483560
  0.4973957834732374  0.4997294538172170  0.6675157468513930
  0.1666029325948344  0.8320052331284273  0.6644521890003574
  0.4989295418605195  0.8285778978218303  0.6666136998726486
  0.8327323473983554  0.8324531015094578  0.6645798350271832
  0.4946424750852927  0.1676766159215219  0.6642381005624358
  0.8350374737655741  0.1670943607132358  0.6675844553360690
  0.2510370424154260  0.4186042064007935  0.1723650296035544
  0.5837758498276528  0.4172351768105429  0.1701008003525786
  0.9214313614518090  0.4133113443914525  0.1669376610136339
  0.2481999456425896  0.7505484234127024  0.1677786898668714
  0.5840576923313137  0.7495808757068261  0.1656117517926816
  0.9157761897424308  0.7489967226340539  0.1629304665303835
  0.5838769339680141  0.0857385756821003  0.1679481086500658
  0.2484336847730191  0.4125690088286476  0.4976809740751804
  0.5822106657938733  0.4138958410034732  0.5000410185277815
  0.5805839518912705  0.7455673017551234  0.4974812252863074
  0.9168596828688251  0.7500204900303302  0.4994043545248346
  0.5810599270839916  0.0876417670303269  0.5017091748990339
  0.9251633930931149  0.0876313441751364  0.5017176686346829
  0.2495245782276712  0.4109194174476514  0.8320723839781436
  0.5843651663573937  0.4135618651599628  0.8346936124773165
  0.9175053427167583  0.4173045358697109  0.8326191012428410
  0.2481724055824515  0.7495338166486292  0.8327363007180395
  0.9132704244768917  0.7521394952731981  0.8338751201168861
  0.2489556234870562  0.0886056981928789  0.8292180840363201
  0.5804688473201480  0.0853300492487037  0.8324363846694638
  0.9193223030246642  0.0832224497972049  0.8330032126154023
  0.8343054329931547  0.4975156640465030  0.0003943095789367
  0.8329705213707754  0.8375134877251469  0.9992292522857298
  0.1623542704941769  0.4977627184028890  0.3348497538064379
  0.5007379271733328  0.4988439482739011  0.3350365813467775
  0.8354937669652713  0.4995899937104866  0.6649115236373788
  0.1698265709345890  0.1723164062876705  0.6653711133474189
  0.2434077005469319  0.0831346543781848  0.1648082173985586
  0.9177265590517649  0.0835907660530069  0.1650593769939590
  0.9230336684785456  0.4155778913985344  0.5022376325083115
  0.2469625292876927  0.7450765816308831  0.4988386281780492
  0.2466832880419219  0.0926614530651193  0.5018265481474060
  0.5873252203798458  0.7479276833432280  0.8352519273736476
  0.0005728148667146  0.0004553075118068  0.0040151982218219
  0.9999789452393628  0.3290748400205388  0.3356294850923476
  0.0840778294222631  0.2523339509182065  0.5001747743877658
  0.4124407151322700  0.2495738689415887  0.4995923309086265
  0.0846554617279764  0.2483689154926765  0.8290168051270399
  0.4130942367678543  0.2476071696663809  0.8297784238689800
  0.0001818909558224  0.3304058310984743  0.9939486703158309
  0.3305090721122994  0.3300343726795276  0.9983083374736808
  0.6653680407038962  0.3356837451157446  0.9984277194793094
  0.9950316069393281  0.6652823699662633  0.9999775025807978
  0.3295681404806388  0.6664070864793317  0.9992665617605638
  0.6713837376482417  0.6678341042517602  0.9977041829145321
  0.3310720068582924  0.0032003682604866  0.0023414081263553
  0.6720036787194843  0.9967952406709557  0.9979763149013579
  0.3320802244579681  0.3348162255899467  0.3344495385191237
  0.6682834632010852  0.3368030150117534  0.3374934702819203
  0.0039700241426104  0.6691266843872370  0.3343612499359239
  0.3327593742016930  0.6623372737493654  0.3388888167726876
  0.6670404507946301  0.6615833249182685  0.3334201174152867
  0.0054673599185833  0.0049408752794164  0.3340024684786655
  0.3293377274178368  0.0053817146858748  0.3351914597844967
  0.6717262325008306  0.0047398664511107  0.3349066950436139
  0.9967068282478877  0.3286369299245422  0.6638044564544217
  0.3308742537829872  0.3286910738221636  0.6643576356520882
  0.6639693707025671  0.3387496022221583  0.6636778956583598
  0.9969986290130208  0.6612970043342230  0.6639834509730349
  0.3369666307363559  0.6717285137332496  0.6691176702785526
  0.6676913012050179  0.6635604178982106  0.6697752117369404
  0.0059240172818207  0.0072732678004215  0.6692737264363942
  0.3319402169474444  0.9980298994411214  0.6595262454762150
  0.6664543666270006  0.9977485063917939  0.6648473903981440
  0.0829901551800205  0.5857128572474224  0.1700484029816565
  0.4179811042955777  0.5834228844648948  0.1718517987690191
  0.7508682282663059  0.5793825444321143  0.1637117742545300
  0.0741201700698326  0.9206121211972729  0.1608355315042331
  0.4136665256965273  0.9168246661320580  0.1649243983240751
  0.7544086425456129  0.9199189406832673  0.1662537518495668
  0.0852960788369757  0.2461833369244886  0.1713581066819643
  0.4168494464399188  0.2527102400866212  0.1713259317845512
  0.7547187855240765  0.2504122954790233  0.1678152526761352
  0.0872903324614640  0.5750710250345179  0.4957147374472157
  0.4107490443701849  0.5798938349263452  0.4937713867456424
  0.7476129871961135  0.5746961289330699  0.4986463260233123
  0.0923181971107851  0.9238291068473643  0.5051532624274273
  0.4077858901306044  0.9190491168239134  0.5001551927995038
  0.7491540164819455  0.9196804348041212  0.4977853601345714
  0.7558936889344494  0.2544918409688819  0.5018274698056615
  0.0809885932103001  0.5830602916317886  0.8302361823709390
  0.4170873481567341  0.5844478408859644  0.8342899503418835
  0.7543807261323892  0.5819761767686060  0.8358781819509176
  0.0835720242818141  0.9162281471483595  0.8356576044165962
  0.4157208915184896  0.9166986038379576  0.8326764385729604
  0.7507399572044733  0.9226539293437810  0.8379616130522578
  0.7502204050247556  0.2524749695799429  0.8353184728712080
  0.1259192650457877  0.4590423370996106  0.0861947599940507
  0.4576716543036454  0.4572175276238255  0.0844611551094729
  0.7974020413966159  0.4566483227636695  0.0794053792228411
  0.1217556271047968  0.7918164131365089  0.0839931475934534
  0.4578632815522568  0.7911804325235892  0.0814031142033045
  0.7960690225507037  0.7967198290310478  0.0780564454646608
  0.1210933517507442  0.1157373039115015  0.0823059109034645
  0.4585768384305950  0.1287756778878020  0.0843637052370951
  0.7994013076168471  0.1222730391120024  0.0875509624766622
  0.1193535308880769  0.4451425505101199  0.4050174167133278
  0.4611340788208125  0.4586589994957535  0.4125391454285250
  0.8040952984672955  0.4528798878714255  0.4231209211964497
  0.1334269952385867  0.7921311839778156  0.4248283833421809
  0.4557505295909152  0.7927222791796780  0.4180502055822828
  0.7908469623575627  0.7911007780919945  0.4151525845175357
  0.1283080071384006  0.1348111721018341  0.4260328346810951
  0.4536649561987716  0.1345332875218119  0.4230843240572213
  0.7997837427597290  0.1294604855991111  0.4172734924783583
  0.1250837164802903  0.4557895460924613  0.7498864599983790
  0.4575822149121151  0.4555084042480502  0.7511234777874449
  0.7957702797524817  0.4600343815413126  0.7435529080221102
  0.1223225056582180  0.7895208508521634  0.7473022029710918
  0.4698734105030553  0.7904295311276570  0.7591358593633615
  0.7890206265155300  0.7939672870381429  0.7492346270427461
  0.1266685262787632  0.1381432149943933  0.7462524743798014
  0.4533705746473800  0.1317573356936137  0.7523536459454050
  0.7917658700281933  0.1248428865000264  0.7508230557237781
  0.2919599642897808  0.6241661554744979  0.0855773007883798
  0.6252248920343391  0.6232143267072345  0.0801378340557974
  0.9512604632449850  0.6158605772007348  0.0793364401267382
  0.2867434760990903  0.9673261692129458  0.0888286226994524
  0.6252757033207246  0.9603066683764325  0.0832761402036724
  0.9483184996347447  0.9628796591676476  0.0764929371168677
  0.2890159871403526  0.2915996254150457  0.0852943493607441
  0.6277732853598224  0.2936105720919073  0.0858288703459920
  0.9629628856403798  0.2887811906570334  0.0815665040920024
  0.2770477352133867  0.6206010351390390  0.4166407087093731
  0.6191707658380352  0.6151283043688736  0.4128973491633516
  0.9614433148791477  0.6250406849627765  0.4177007606662357
  0.2846442417000716  0.9723246695671861  0.4235273385475011
  0.6221194180284328  0.9625962062978601  0.4158591384462369
  0.9623300303847273  0.9589085323343269  0.4161587173746497
  0.2975830288003465  0.2875682371795065  0.4200095579674397
  0.6214353008202806  0.2876402760067549  0.4152271885391272
  0.9704338013468572  0.2994261828873945  0.4244096745250516
  0.2896417618048801  0.6238748923066453  0.7482000028491171
  0.6235957203103055  0.6274311862993898  0.7563388770705046
  0.9497295776467993  0.6209044836853082  0.7466571255843988
  0.2907354980240626  0.9595235005801328  0.7471949133831259
  0.6216726849872032  0.9580715100435668  0.7489674762843066
  0.9592975628980440  0.9575771635860448  0.7473164566497630
  0.2941040665287318  0.2834969923869508  0.7501692801101072
  0.6238580876931437  0.2903822380447849  0.7466669853367662
  0.9656464069018540  0.2892135028041167  0.7552100502786487
  0.2045487436511095  0.3819763344742810  0.2571499764215801
  0.5406954613479016  0.3815680483471553  0.2572589970495471
  0.8869540537587639  0.3703718477794524  0.2555242301620879
  0.2101450912788110  0.7106473389298955  0.2547139391294522
  0.5435099641856453  0.7101037020116081  0.2517154691511934
  0.8761969700477081  0.7079618097104259  0.2485452201733693
  0.2044648424524595  0.0438300571757608  0.2435426172602320
  0.5406246669851811  0.0429197664761460  0.2508858426771567
  0.8811200100572449  0.0457126459589787  0.2454012955613436
  0.2019124274588364  0.3674722004794191  0.5783812934907360
  0.5288064539483059  0.3681695278019887  0.5769082346081831
  0.8790057884986879  0.3848804961678169  0.5842272741678087
  0.2096361607109216  0.7072249655549285  0.5787334182979507
  0.5406926988748140  0.7032286571896122  0.5822314118701897
  0.8717277347302783  0.7050820333078818  0.5799270075595970
  0.2113201304068539  0.0571392403332922  0.5849228805840738
  0.5388353194333035  0.0413991184014364  0.5833655404158478
  0.8772854352918884  0.0438863329559922  0.5817356224858656
  0.1999855984655525  0.3663851212363838  0.9114879860836638
  0.5309547856011960  0.3644701204075531  0.9095165263215392
  0.8734864316799928  0.3818895145986687  0.9196878440917757
  0.2043160654266813  0.7121972839887079  0.9177883329057650
  0.5447853850767075  0.7098047145094242  0.9124230256512647
  0.8728584362320291  0.7184212801861989  0.9230324435709960
  0.2082359949442960  0.0447124460880346  0.9135356054564525
  0.5437726785091499  0.0418226134363735  0.9178633155225668
  0.8869040339871290  0.0392904924453319  0.9218299095531108
  0.0481819542995723  0.5387177667165304  0.2559019562369329
  0.3827550054598063  0.5395105649211800  0.2586971041802357
  0.7141476583061959  0.5378400772545433  0.2514773041295371
  0.0424921615003981  0.8741516290945128  0.2488850393065007
  0.3725158017045516  0.8779853142031868  0.2518487169566299
  0.7100895667058964  0.8759646982888327  0.2484501015182516
  0.0318977739244843  0.2076629374656065  0.2520956716581750
  0.3614913948393408  0.2008510668370604  0.2435724539069923
  0.7107663622805731  0.2108773325613100  0.2522388411256458
  0.0377120337952235  0.5348122237106239  0.5781080035051076
  0.3720181495439974  0.5403513107933833  0.5819582872220508
  0.7132681223946662  0.5362703361811825  0.5889442731563648
  0.0422189004633182  0.8766709125594332  0.5830907832258205
  0.3667359313305099  0.8616119585839073  0.5776471897483617
  0.7061635385335663  0.8717067245910926  0.5789508205164395
  0.0542405032755369  0.2127828724052705  0.5832992600545097
  0.3696587577313153  0.2055569536536765  0.5730425208682135
  0.7102802371580026  0.2106500071872262  0.5840867539416408
  0.0424500758265651  0.5429821836404187  0.9175634302768572
  0.3728849463130643  0.5391946142505546  0.9164059012639356
  0.7159149763627823  0.5356369848943174  0.9213014736438794
  0.0360503084046897  0.8835806958545760  0.9219449847224155
  0.3729513551561823  0.8762435771036152  0.9174251101759481
  0.7084712709623062  0.8645734926349320  0.9147614190386122
  0.0457815457227397  0.2090928243619672  0.9079241622798477
  0.3787181263515222  0.2119070092215267  0.9113300828998661
  0.7109496323995046  0.2063255725018038  0.9187178826190419

  0.00000000E+00  0.00000000E+00  0.00000000E+00
  0.00000000E+00  0.00000000E+00  0.00000000E+00
  0.00000000E+00  0.00000000E+00  0.00000000E+00
  0.00000000E+00  0.00000000E+00  0.00000000E+00
  0.00000000E+00  0.00000000E+00  0.00000000E+00
  0.00000000E+00  0.00000000E+00  0.00000000E+00
  0.00000000E+00  0.00000000E+00  0.00000000E+00
  0.00000000E+00  0.00000000E+00  0.00000000E+00
  0.00000000E+00  0.00000000E+00  0.00000000E+00
  0.00000000E+00  0.00000000E+00  0.00000000E+00
  0.00000000E+00  0.00000000E+00  0.00000000E+00
  0.00000000E+00  0.00000000E+00  0.00000000E+00
  0.00000000E+00  0.00000000E+00  0.00000000E+00
  0.00000000E+00  0.00000000E+00  0.00000000E+00
  0.00000000E+00  0.00000000E+00  0.00000000E+00
  0.00000000E+00  0.00000000E+00  0.00000000E+00
  0.00000000E+00  0.00000000E+00  0.00000000E+00
  0.00000000E+00  0.00000000E+00  0.00000000E+00
  0.00000000E+00  0.00000000E+00  0.00000000E+00
  0.00000000E+00  0.00000000E+00  0.00000000E+00
  0.00000000E+00  0.00000000E+00  0.00000000E+00
  0.00000000E+00  0.00000000E+00  0.00000000E+00
  0.00000000E+00  0.00000000E+00  0.00000000E+00
  0.00000000E+00  0.00000000E+00  0.00000000E+00
  0.00000000E+00  0.00000000E+00  0.00000000E+00
  0.00000000E+00  0.00000000E+00  0.00000000E+00
  0.00000000E+00  0.00000000E+00  0.00000000E+00
  0.00000000E+00  0.00000000E+00  0.00000000E+00
  0.00000000E+00  0.00000000E+00  0.00000000E+00
  0.00000000E+00  0.00000000E+00  0.00000000E+00
  0.00000000E+00  0.00000000E+00  0.00000000E+00
  0.00000000E+00  0.00000000E+00  0.00000000E+00
  0.00000000E+00  0.00000000E+00  0.00000000E+00
  0.00000000E+00  0.00000000E+00  0.00000000E+00
  0.00000000E+00  0.00000000E+00  0.00000000E+00
  0.00000000E+00  0.00000000E+00  0.00000000E+00
  0.00000000E+00  0.00000000E+00  0.00000000E+00
  0.00000000E+00  0.00000000E+00  0.00000000E+00
  0.00000000E+00  0.00000000E+00  0.00000000E+00
  0.00000000E+00  0.00000000E+00  0.00000000E+00
  0.00000000E+00  0.00000000E+00  0.00000000E+00
  0.00000000E+00  0.00000000E+00  0.00000000E+00
  0.00000000E+00  0.00000000E+00  0.00000000E+00
  0.00000000E+00  0.00000000E+00  0.00000000E+00
  0.00000000E+00  0.00000000E+00  0.00000000E+00
  0.00000000E+00  0.00000000E+00  0.00000000E+00
  0.00000000E+00  0.00000000E+00  0.00000000E+00
  0.00000000E+00  0.00000000E+00  0.00000000E+00
  0.00000000E+00  0.00000000E+00  0.00000000E+00
  0.00000000E+00  0.00000000E+00  0.00000000E+00
  0.00000000E+00  0.00000000E+00  0.00000000E+00
  0.00000000E+00  0.00000000E+00  0.00000000E+00
  0.00000000E+00  0.00000000E+00  0.00000000E+00
  0.00000000E+00  0.00000000E+00  0.00000000E+00
  0.00000000E+00  0.00000000E+00  0.00000000E+00
  0.00000000E+00  0.00000000E+00  0.00000000E+00
  0.00000000E+00  0.00000000E+00  0.00000000E+00
  0.00000000E+00  0.00000000E+00  0.00000000E+00
  0.00000000E+00  0.00000000E+00  0.00000000E+00
  0.00000000E+00  0.00000000E+00  0.00000000E+00
  0.00000000E+00  0.00000000E+00  0.00000000E+00
  0.00000000E+00  0.00000000E+00  0.00000000E+00
  0.00000000E+00  0.00000000E+00  0.00000000E+00
  0.00000000E+00  0.00000000E+00  0.00000000E+00
  0.00000000E+00  0.00000000E+00  0.00000000E+00
  0.00000000E+00  0.00000000E+00  0.00000000E+00
  0.00000000E+00  0.00000000E+00  0.00000000E+00
  0.00000000E+00  0.00000000E+00  0.00000000E+00
  0.00000000E+00  0.00000000E+00  0.00000000E+00
  0.00000000E+00  0.00000000E+00  0.00000000E+00
  0.00000000E+00  0.00000000E+00  0.00000000E+00
  0.00000000E+00  0.00000000E+00  0.00000000E+00
  0.00000000E+00  0.00000000E+00  0.00000000E+00
  0.00000000E+00  0.00000000E+00  0.00000000E+00
  0.00000000E+00  0.00000000E+00  0.00000000E+00
  0.00000000E+00  0.00000000E+00  0.00000000E+00
  0.00000000E+00  0.00000000E+00  0.00000000E+00
  0.00000000E+00  0.00000000E+00  0.00000000E+00
  0.00000000E+00  0.00000000E+00  0.00000000E+00
  0.00000000E+00  0.00000000E+00  0.00000000E+00
  0.00000000E+00  0.00000000E+00  0.00000000E+00
  0.00000000E+00  0.00000000E+00  0.00000000E+00
  0.00000000E+00  0.00000000E+00  0.00000000E+00
  0.00000000E+00  0.00000000E+00  0.00000000E+00
  0.00000000E+00  0.00000000E+00  0.00000000E+00
  0.00000000E+00  0.00000000E+00  0.00000000E+00
  0.00000000E+00  0.00000000E+00  0.00000000E+00
  0.00000000E+00  0.00000000E+00  0.00000000E+00
  0.00000000E+00  0.00000000E+00  0.00000000E+00
  0.00000000E+00  0.00000000E+00  0.00000000E+00
  0.00000000E+00  0.00000000E+00  0.00000000E+00
  0.00000000E+00  0.00000000E+00  0.00000000E+00
  0.00000000E+00  0.00000000E+00  0.00000000E+00
  0.00000000E+00  0.00000000E+00  0.00000000E+00
  0.00000000E+00  0.00000000E+00  0.00000000E+00
  0.00000000E+00  0.00000000E+00  0.00000000E+00
  0.00000000E+00  0.00000000E+00  0.00000000E+00
  0.00000000E+00  0.00000000E+00  0.00000000E+00
  0.00000000E+00  0.00000000E+00  0.00000000E+00
  0.00000000E+00  0.00000000E+00  0.00000000E+00
  0.00000000E+00  0.00000000E+00  0.00000000E+00
  0.00000000E+00  0.00000000E+00  0.00000000E+00
  0.00000000E+00  0.00000000E+00  0.00000000E+00
  0.00000000E+00  0.00000000E+00  0.00000000E+00
  0.00000000E+00  0.00000000E+00  0.00000000E+00
  0.00000000E+00  0.00000000E+00  0.00000000E+00
  0.00000000E+00  0.00000000E+00  0.00000000E+00
  0.00000000E+00  0.00000000E+00  0.00000000E+00
  0.00000000E+00  0.00000000E+00  0.00000000E+00
  0.00000000E+00  0.00000000E+00  0.00000000E+00
  0.00000000E+00  0.00000000E+00  0.00000000E+00
  0.00000000E+00  0.00000000E+00  0.00000000E+00
  0.00000000E+00  0.00000000E+00  0.00000000E+00
  0.00000000E+00  0.00000000E+00  0.00000000E+00
  0.00000000E+00  0.00000000E+00  0.00000000E+00
  0.00000000E+00  0.00000000E+00  0.00000000E+00
  0.00000000E+00  0.00000000E+00  0.00000000E+00
  0.00000000E+00  0.00000000E+00  0.00000000E+00
  0.00000000E+00  0.00000000E+00  0.00000000E+00
  0.00000000E+00  0.00000000E+00  0.00000000E+00
  0.00000000E+00  0.00000000E+00  0.00000000E+00
  0.00000000E+00  0.00000000E+00  0.00000000E+00
  0.00000000E+00  0.00000000E+00  0.00000000E+00
  0.00000000E+00  0.00000000E+00  0.00000000E+00
  0.00000000E+00  0.00000000E+00  0.00000000E+00
  0.00000000E+00  0.00000000E+00  0.00000000E+00
  0.00000000E+00  0.00000000E+00  0.00000000E+00
  0.00000000E+00  0.00000000E+00  0.00000000E+00
  0.00000000E+00  0.00000000E+00  0.00000000E+00
  0.00000000E+00  0.00000000E+00  0.00000000E+00
  0.00000000E+00  0.00000000E+00  0.00000000E+00
  0.00000000E+00  0.00000000E+00  0.00000000E+00
  0.00000000E+00  0.00000000E+00  0.00000000E+00
  0.00000000E+00  0.00000000E+00  0.00000000E+00
  0.00000000E+00  0.00000000E+00  0.00000000E+00
  0.00000000E+00  0.00000000E+00  0.00000000E+00
  0.00000000E+00  0.00000000E+00  0.00000000E+00
  0.00000000E+00  0.00000000E+00  0.00000000E+00
  0.00000000E+00  0.00000000E+00  0.00000000E+00
  0.00000000E+00  0.00000000E+00  0.00000000E+00
  0.00000000E+00  0.00000000E+00  0.00000000E+00
  0.00000000E+00  0.00000000E+00  0.00000000E+00
  0.00000000E+00  0.00000000E+00  0.00000000E+00
  0.00000000E+00  0.00000000E+00  0.00000000E+00
  0.00000000E+00  0.00000000E+00  0.00000000E+00
  0.00000000E+00  0.00000000E+00  0.00000000E+00
  0.00000000E+00  0.00000000E+00  0.00000000E+00
  0.00000000E+00  0.00000000E+00  0.00000000E+00
  0.00000000E+00  0.00000000E+00  0.00000000E+00
  0.00000000E+00  0.00000000E+00  0.00000000E+00
  0.00000000E+00  0.00000000E+00  0.00000000E+00
  0.00000000E+00  0.00000000E+00  0.00000000E+00
  0.00000000E+00  0.00000000E+00  0.00000000E+00
  0.00000000E+00  0.00000000E+00  0.00000000E+00
  0.00000000E+00  0.00000000E+00  0.00000000E+00
  0.00000000E+00  0.00000000E+00  0.00000000E+00
  0.00000000E+00  0.00000000E+00  0.00000000E+00
  0.00000000E+00  0.00000000E+00  0.00000000E+00
  0.00000000E+00  0.00000000E+00  0.00000000E+00
  0.00000000E+00  0.00000000E+00  0.00000000E+00
  0.00000000E+00  0.00000000E+00  0.00000000E+00
  0.00000000E+00  0.00000000E+00  0.00000000E+00
  0.00000000E+00  0.00000000E+00  0.00000000E+00
  0.00000000E+00  0.00000000E+00  0.00000000E+00
  0.00000000E+00  0.00000000E+00  0.00000000E+00
  0.00000000E+00  0.00000000E+00  0.00000000E+00
  0.00000000E+00  0.00000000E+00  0.00000000E+00
  0.00000000E+00  0.00000000E+00  0.00000000E+00
  0.00000000E+00  0.00000000E+00  0.00000000E+00
  0.00000000E+00  0.00000000E+00  0.00000000E+00
  0.00000000E+00  0.00000000E+00  0.00000000E+00
  0.00000000E+00  0.00000000E+00  0.00000000E+00
  0.00000000E+00  0.00000000E+00  0.00000000E+00
  0.00000000E+00  0.00000000E+00  0.00000000E+00
  0.00000000E+00  0.00000000E+00  0.00000000E+00
  0.00000000E+00  0.00000000E+00  0.00000000E+00
  0.00000000E+00  0.00000000E+00  0.00000000E+00
  0.00000000E+00  0.00000000E+00  0.00000000E+00
  0.00000000E+00  0.00000000E+00  0.00000000E+00
  0.00000000E+00  0.00000000E+00  0.00000000E+00
  0.00000000E+00  0.00000000E+00  0.00000000E+00
  0.00000000E+00  0.00000000E+00  0.00000000E+00
  0.00000000E+00  0.00000000E+00  0.00000000E+00
  0.00000000E+00  0.00000000E+00  0.00000000E+00
  0.00000000E+00  0.00000000E+00  0.00000000E+00
  0.00000000E+00  0.00000000E+00  0.00000000E+00
  0.00000000E+00  0.00000000E+00  0.00000000E+00
  0.00000000E+00  0.00000000E+00  0.00000000E+00
  0.00000000E+00  0.00000000E+00  0.00000000E+00
  0.00000000E+00  0.00000000E+00  0.00000000E+00
  0.00000000E+00  0.00000000E+00  0.00000000E+00
  0.00000000E+00  0.00000000E+00  0.00000000E+00
  0.00000000E+00  0.00000000E+00  0.00000000E+00
  0.00000000E+00  0.00000000E+00  0.00000000E+00
  0.00000000E+00  0.00000000E+00  0.00000000E+00
  0.00000000E+00  0.00000000E+00  0.00000000E+00
  0.00000000E+00  0.00000000E+00  0.00000000E+00
  0.00000000E+00  0.00000000E+00  0.00000000E+00
  0.00000000E+00  0.00000000E+00  0.00000000E+00
  0.00000000E+00  0.00000000E+00  0.00000000E+00
  0.00000000E+00  0.00000000E+00  0.00000000E+00
  0.00000000E+00  0.00000000E+00  0.00000000E+00
  0.00000000E+00  0.00000000E+00  0.00000000E+00
  0.00000000E+00  0.00000000E+00  0.00000000E+00
  0.00000000E+00  0.00000000E+00  0.00000000E+00
  0.00000000E+00  0.00000000E+00  0.00000000E+00
  0.00000000E+00  0.00000000E+00  0.00000000E+00
  0.00000000E+00  0.00000000E+00  0.00000000E+00
  0.00000000E+00  0.00000000E+00  0.00000000E+00
  0.00000000E+00  0.00000000E+00  0.00000000E+00
  0.00000000E+00  0.00000000E+00  0.00000000E+00
  0.00000000E+00  0.00000000E+00  0.00000000E+00
  0.00000000E+00  0.00000000E+00  0.00000000E+00
  0.00000000E+00  0.00000000E+00  0.00000000E+00
  0.00000000E+00  0.00000000E+00  0.00000000E+00
  0.00000000E+00  0.00000000E+00  0.00000000E+00
