In24 Ga30 Cu12 Ag42 Se108               
   1.0000000000000000     
    16.3914239258790531    0.0022979778903645   -7.5314341962678606
    -3.4526174767247269   16.0447543484768822   -7.5500380418615496
     0.0147611759807741    0.0166875655007725   21.6642119303994392
   In   Ga   Cu   Ag   Se
    24    30    12    42   108
Direct
  0.5023319701030786  0.5013665194549688  0.9994464183912584
  0.1671244582040572  0.4991399255973121  0.3368597616064122
  0.8342970514826860  0.8393026613384151  0.3408206973512193
  0.8276862680209760  0.1634087016015258  0.3312246512345638
  0.8333512319271108  0.5012585463018056  0.6680172842766297
  0.5053961588067395  0.8332271667487632  0.6675293509975901
  0.8311929040061301  0.8282963430108765  0.6652478672850535
  0.5028540718781613  0.1656590168085472  0.6652775308030954
  0.8349119748039513  0.1724051586998030  0.6714471381360880
  0.2498528849606600  0.4113445467016419  0.1642671338494495
  0.5863966313712723  0.4148308849318312  0.1669684376607989
  0.9108574182160893  0.4153437049169142  0.1633862939138453
  0.2502260521068962  0.7522409495670530  0.1655781836127872
  0.5818118878432088  0.7579527825879211  0.1688285378251706
  0.9198358985130568  0.7496174157792197  0.1661076774716364
  0.5818493328071384  0.4134485674636679  0.5000347846227768
  0.9192405157827395  0.4191724714171485  0.5018834562529193
  0.2488297410466203  0.7529440627383863  0.5008371903768420
  0.2538467373749995  0.0844134984888640  0.4995703208200482
  0.5792744523881623  0.0861152111597931  0.4960756016991539
  0.2468923138352039  0.4189683493956835  0.8276199736759438
  0.5871055757184251  0.4168879732267499  0.8325851576338650
  0.9170001600266673  0.7481043473239666  0.8343495182172944
  0.5862432445426009  0.0888825638198938  0.8367679018282601
  0.1643919089273922  0.4980248637799818  0.9968775379438028
  0.8293375667694391  0.4978549968505561  0.9946231728008428
  0.1691666917931371  0.8399370780191759  0.9988692755239086
  0.4919519503651131  0.8333866591399257  0.9951514449948107
  0.8292226217464602  0.8317675797058683  0.9985451911031404
  0.1697683124257523  0.1587820518806211  0.9970841405712250
  0.4986569323786370  0.1595790937539689  0.9980631986586701
  0.8349737053263411  0.1684266204872316  0.9997289550388615
  0.4991252364538852  0.5002811014558901  0.3342011436227210
  0.8369406051359292  0.5010870994220440  0.3374647575808538
  0.1698228166905835  0.8345593129557116  0.3348415119653794
  0.5036639034957986  0.8365839013165370  0.3366048914127049
  0.1681123408645178  0.1688759684983552  0.3322824528646535
  0.5008496491899734  0.1648809822422876  0.3326317910349346
  0.1687705297534876  0.5089520231956541  0.6687534404030373
  0.4988953705675243  0.5012539264292428  0.6679473195103469
  0.1636099248513929  0.8271658929684662  0.6672515193110158
  0.1656268368340932  0.1635849011598012  0.6677167363533627
  0.2548766611252589  0.0832159962073433  0.1659736824619884
  0.5760891795623166  0.0787544478876683  0.1632860688286399
  0.9164237513343778  0.0812166267445917  0.1637232742353092
  0.2506547723873425  0.4188159569137966  0.5050470206215252
  0.5812320137886786  0.7479463965849504  0.4985999508442163
  0.9230836791697357  0.7431526810513489  0.5039544787120036
  0.9155666640111306  0.0871616526474526  0.5042428827635703
  0.9144815971454108  0.4211499111659904  0.8379318789626211
  0.2487931807988772  0.7515928863811894  0.8346475076570457
  0.5831277322641739  0.7449182249161623  0.8325126629417028
  0.2506932748426252  0.0772763092807978  0.8326695059177212
  0.9164516942157164  0.0849139638046523  0.8373787083147732
  0.6660900585259526  0.3276136725011796  0.9957489359840395
  0.3327888655782729  0.9996227870893435  0.9995880699696897
  0.6670451366664238  0.0078137751903071  0.3357553327847000
  0.0069996833984547  0.6674507289948650  0.6669456335313768
  0.6621432596623364  0.6633110476928792  0.6695865384111670
  0.0854401846249857  0.5848939126454695  0.5062489440531621
  0.4170097666489028  0.9127007575611472  0.4964238541878601
  0.4132403293075200  0.2569138706621246  0.4965934160764931
  0.7456595390635314  0.2416372768886532  0.4954247572921204
  0.4177708944837519  0.5889481657876061  0.8302322973585845
  0.7450385468693881  0.5881302530754269  0.8331933439008097
  0.7554376125168574  0.2510862185081351  0.8403835823373171
  0.9971203341570813  0.3299508739726775  0.9925365922549148
  0.3348460886770539  0.3267022115083691  0.9928131368794766
  0.9993903003692211  0.6699876147080559  0.9988277572819371
  0.3279961115181180  0.6603609647130284  0.9910147088527168
  0.6596633560806140  0.6683280029017311  0.9934662220953996
  0.0006995052270327  0.0052315524036217  0.0038123670420163
  0.6716906064238302  0.0009524155400271  0.0056926438118339
  0.0055454793831089  0.3348686476085376  0.3349358470571957
  0.3318136443404569  0.3231521267679227  0.3320546894957275
  0.6651371991621033  0.3282605569311485  0.3329558485952404
  0.9983473477178180  0.6677026232310297  0.3399719376591506
  0.3394286099142008  0.6741902947709519  0.3363590612234546
  0.6695853720770799  0.6665967457613107  0.3370977174682750
  0.9982221091949697  0.0005907097389937  0.3303218981967007
  0.3333330657176603  0.0022794148313565  0.3344191858058281
  0.9940632435442041  0.3344206954030255  0.6628310649772899
  0.3357037136162191  0.3364881201213805  0.6652724701904233
  0.6698100067003026  0.3425529410870354  0.6712521520158319
  0.3307016594272056  0.6641780231930881  0.6680628880803923
  0.0049513305246052  0.9991735259953174  0.6698206338679782
  0.3306647519698487  0.9934702565584459  0.6675976302882063
  0.6722128686984874  0.0025695838071300  0.6653118258439861
  0.0846940544018508  0.5810810505434674  0.1652451840755376
  0.4145349166257688  0.5876707073950058  0.1689462986334220
  0.7539366938044765  0.5781411057379486  0.1645910473880861
  0.0846572889850989  0.9233682134674908  0.1656333240406553
  0.4184665620578372  0.9219625405531175  0.1665683532705415
  0.7429007017430962  0.9145860542021396  0.1623070512690603
  0.0785365738367148  0.2392591945127407  0.1609898162287919
  0.4179191089469327  0.2464162328720789  0.1626102505307330
  0.7452544799524716  0.2487361823262475  0.1605027478197272
  0.4220395845225937  0.5811977958568733  0.5027725242760965
  0.7498183085938024  0.5863045550953387  0.5022543875082519
  0.0816955637765631  0.9192295757616264  0.5047974324932625
  0.7469826114655973  0.9198092770415869  0.4968462453999365
  0.0887487821686008  0.2488382043560335  0.5060479468125862
  0.0826240605132256  0.5852046451078294  0.8364628374567431
  0.0857135237404734  0.9170316562712841  0.8317609206590930
  0.4154381400672236  0.9125244874481382  0.8343167903563611
  0.7535462245259907  0.9136001196498142  0.8386490463592082
  0.0835094353096224  0.2497184406618658  0.8362532128398854
  0.4125596226542925  0.2538775973571745  0.8355807801135740
  0.1268765082968173  0.4571138198543707  0.0764851360649530
  0.4583088409837899  0.4593753722104239  0.0837044673577054
  0.7829311865315134  0.4499972672437380  0.0682070079395700
  0.1283730485794621  0.7980741521821599  0.0770476517276109
  0.4545695545364907  0.7922205413431769  0.0749031783473413
  0.7931283673601754  0.7928646885305781  0.0794886040005949
  0.1383808953275576  0.1229970364022535  0.0829471839649898
  0.4574370875837204  0.1148791027101410  0.0765918693135745
  0.8021230818767933  0.1262102434936239  0.0826021268293147
  0.1313785572610868  0.4662378546306627  0.4312229989966170
  0.4576488257665901  0.4539701462413603  0.4090023076955376
  0.7918488671126482  0.4591808381948397  0.4127312813658790
  0.1251730031381868  0.7968273093075453  0.4128104647177295
  0.4683220278190632  0.8010023015488983  0.4226747004992788
  0.8046144389006713  0.7882831125248160  0.4280984428569710
  0.1290709907663725  0.1267780282627413  0.4109091041344541
  0.4550615331716870  0.1389333206591203  0.4162245200206769
  0.7897202094286868  0.1233036781497532  0.4222684629365574
  0.1222802819899087  0.4628047438683751  0.7410137242120101
  0.4608380658972564  0.4703573874778328  0.7532548029847916
  0.7983135789499727  0.4717158870788012  0.7641523954582681
  0.1270701479904588  0.7844888277794482  0.7475705874586183
  0.4658774465365241  0.7872016411397240  0.7529617312993437
  0.7827109448824459  0.7807544222454297  0.7451532221510320
  0.1362055779906370  0.1249993865354497  0.7539878815223133
  0.4562861086079693  0.1253538590088965  0.7490617401898163
  0.7983426882162874  0.1332037541051179  0.7628072442317801
  0.2826971271093868  0.6182245352450977  0.0754190826911625
  0.6280481303929690  0.6306071347722408  0.0868149775427938
  0.9509839273521905  0.6148352152147467  0.0765711955238331
  0.2885260626806883  0.9624816226497686  0.0790181532586374
  0.6098444191993480  0.9553152592124121  0.0802277102854987
  0.9465963269870628  0.9557871870498147  0.0797909699032644
  0.2849856599904257  0.2809746612803394  0.0739172757293076
  0.6156356839590060  0.2839294411681976  0.0688261634826333
  0.9535846072663361  0.2863567932256927  0.0783690136227762
  0.2943569447043544  0.6262626932144428  0.4187070561257471
  0.6149232710773447  0.6241189952051087  0.4166111420383274
  0.9611906670266066  0.6191188672050600  0.4246624296018666
  0.2949748552463234  0.9494431103074703  0.4175086323656529
  0.6202235154325493  0.9589410621392744  0.4064589042384412
  0.9574586789082318  0.9711471327451093  0.4239057426174000
  0.2860639963409284  0.2931444161278449  0.4223117520894846
  0.6251299299068336  0.2810104938162752  0.4175187761931838
  0.9582266829665045  0.2884441556835782  0.4171186075277902
  0.2905733689341403  0.6275065489367435  0.7584836238686066
  0.6230367934259604  0.6229010931962478  0.7494278007836996
  0.9618675634929446  0.6276688051821182  0.7432373658202067
  0.2805215679087993  0.9506673289223855  0.7486696975176983
  0.6306445294492065  0.9619991963994252  0.7534292683345285
  0.9521374886482974  0.9639935925965375  0.7549685595334736
  0.2825944420437736  0.2848357638071164  0.7418744800666772
  0.6372018961256529  0.2870916453860843  0.7559118780734551
  0.9578113847908156  0.3047065276920335  0.7590835422698490
  0.2048304097846056  0.3699855884909979  0.2485798149103573
  0.5395045095791389  0.3809512319650921  0.2545836157715726
  0.8724868519015487  0.3798886407797539  0.2549125195077693
  0.2066290218168945  0.7145326876075941  0.2530769146568730
  0.5418542361305256  0.7165256907370505  0.2567560946788490
  0.8746293622344297  0.7128027231050567  0.2523869869733275
  0.2109840819369424  0.0534333022750602  0.2494741296950167
  0.5490068439284670  0.0483876896619435  0.2555875390110458
  0.8723867560794929  0.0416776876291749  0.2409942525340227
  0.2074674707047492  0.3882765437048121  0.5873288554100924
  0.5316128129949504  0.3760067525039545  0.5853727368423449
  0.8597367719735516  0.3663274055157970  0.5733774976009727
  0.2009782707628034  0.7080738648638487  0.5838630623523855
  0.5522938800818764  0.7071809338313244  0.5840776670067882
  0.8876322945594310  0.7055694262063028  0.5870854938577352
  0.2086069573170448  0.0490811911294315  0.5879934739021664
  0.5352527548722321  0.0324595889266845  0.5748926220900117
  0.8783475043483975  0.0457833979905402  0.5840463158704807
  0.2082779640267347  0.3825814251495672  0.9183178067782691
  0.5493758701862532  0.3718255403472952  0.9196978166289611
  0.8673897531339136  0.3770049770277737  0.9122032276340803
  0.2057536079069777  0.7196236546015484  0.9164163068528950
  0.5305548022176581  0.7123619493217532  0.9102550057059204
  0.8637023756436406  0.7081407423714339  0.9162346078713526
  0.2168706905286228  0.0428903979450155  0.9192099777862950
  0.5418769534251382  0.0438912649016032  0.9202097804897491
  0.8739715435404989  0.0496756888476853  0.9179105450481728
  0.0398983932466805  0.5413057742986567  0.2506095868922316
  0.3792219911288655  0.5385121203913101  0.2545915192750030
  0.7184774075098943  0.5399149729445654  0.2557582935540381
  0.0519445143172916  0.8744123163408162  0.2536344851698260
  0.3839962365305070  0.8746083121374610  0.2547681953300795
  0.7075080740276078  0.8882884612603732  0.2593044278764296
  0.0408530941965850  0.1983075004762043  0.2488794734793274
  0.3790763147419938  0.1983220286078833  0.2479915789321367
  0.6964373866954574  0.1967979929510975  0.2387606475904818
  0.0486274733996055  0.5501440315896176  0.5891334199960028
  0.3755186039025347  0.5344690694784688  0.5844042478737492
  0.7029827705194549  0.5479040453714390  0.5889875195876755
  0.0424782724751225  0.8632419029184177  0.5853129529471701
  0.3805525523014950  0.8768905875935857  0.5790686343479479
  0.7021469760259293  0.8651774408733033  0.5754045504909371
  0.0418553080577908  0.2012937326590531  0.5875542408353880
  0.3812335839359093  0.2128579568591675  0.5774086776119489
  0.7094552535980512  0.2132674415337377  0.5809994689547651
  0.0407108020735691  0.5349108993431102  0.9177614213913330
  0.3795767032777349  0.5418925887849184  0.9061130258191028
  0.7154764944826226  0.5446040544153803  0.9154487011424592
  0.0457781336248289  0.8758813295080614  0.9203560550958230
  0.3675322573911544  0.8741679056569822  0.9198412758626091
  0.7044220301623412  0.8642281420109512  0.9172985914666469
  0.0446568201517366  0.1952024007985997  0.9176141122375512
  0.3754107368866073  0.1917895850731242  0.9134052175651846
  0.7174882173911499  0.2159119372780580  0.9229862169223964

  0.00000000E+00  0.00000000E+00  0.00000000E+00
  0.00000000E+00  0.00000000E+00  0.00000000E+00
  0.00000000E+00  0.00000000E+00  0.00000000E+00
  0.00000000E+00  0.00000000E+00  0.00000000E+00
  0.00000000E+00  0.00000000E+00  0.00000000E+00
  0.00000000E+00  0.00000000E+00  0.00000000E+00
  0.00000000E+00  0.00000000E+00  0.00000000E+00
  0.00000000E+00  0.00000000E+00  0.00000000E+00
  0.00000000E+00  0.00000000E+00  0.00000000E+00
  0.00000000E+00  0.00000000E+00  0.00000000E+00
  0.00000000E+00  0.00000000E+00  0.00000000E+00
  0.00000000E+00  0.00000000E+00  0.00000000E+00
  0.00000000E+00  0.00000000E+00  0.00000000E+00
  0.00000000E+00  0.00000000E+00  0.00000000E+00
  0.00000000E+00  0.00000000E+00  0.00000000E+00
  0.00000000E+00  0.00000000E+00  0.00000000E+00
  0.00000000E+00  0.00000000E+00  0.00000000E+00
  0.00000000E+00  0.00000000E+00  0.00000000E+00
  0.00000000E+00  0.00000000E+00  0.00000000E+00
  0.00000000E+00  0.00000000E+00  0.00000000E+00
  0.00000000E+00  0.00000000E+00  0.00000000E+00
  0.00000000E+00  0.00000000E+00  0.00000000E+00
  0.00000000E+00  0.00000000E+00  0.00000000E+00
  0.00000000E+00  0.00000000E+00  0.00000000E+00
  0.00000000E+00  0.00000000E+00  0.00000000E+00
  0.00000000E+00  0.00000000E+00  0.00000000E+00
  0.00000000E+00  0.00000000E+00  0.00000000E+00
  0.00000000E+00  0.00000000E+00  0.00000000E+00
  0.00000000E+00  0.00000000E+00  0.00000000E+00
  0.00000000E+00  0.00000000E+00  0.00000000E+00
  0.00000000E+00  0.00000000E+00  0.00000000E+00
  0.00000000E+00  0.00000000E+00  0.00000000E+00
  0.00000000E+00  0.00000000E+00  0.00000000E+00
  0.00000000E+00  0.00000000E+00  0.00000000E+00
  0.00000000E+00  0.00000000E+00  0.00000000E+00
  0.00000000E+00  0.00000000E+00  0.00000000E+00
  0.00000000E+00  0.00000000E+00  0.00000000E+00
  0.00000000E+00  0.00000000E+00  0.00000000E+00
  0.00000000E+00  0.00000000E+00  0.00000000E+00
  0.00000000E+00  0.00000000E+00  0.00000000E+00
  0.00000000E+00  0.00000000E+00  0.00000000E+00
  0.00000000E+00  0.00000000E+00  0.00000000E+00
  0.00000000E+00  0.00000000E+00  0.00000000E+00
  0.00000000E+00  0.00000000E+00  0.00000000E+00
  0.00000000E+00  0.00000000E+00  0.00000000E+00
  0.00000000E+00  0.00000000E+00  0.00000000E+00
  0.00000000E+00  0.00000000E+00  0.00000000E+00
  0.00000000E+00  0.00000000E+00  0.00000000E+00
  0.00000000E+00  0.00000000E+00  0.00000000E+00
  0.00000000E+00  0.00000000E+00  0.00000000E+00
  0.00000000E+00  0.00000000E+00  0.00000000E+00
  0.00000000E+00  0.00000000E+00  0.00000000E+00
  0.00000000E+00  0.00000000E+00  0.00000000E+00
  0.00000000E+00  0.00000000E+00  0.00000000E+00
  0.00000000E+00  0.00000000E+00  0.00000000E+00
  0.00000000E+00  0.00000000E+00  0.00000000E+00
  0.00000000E+00  0.00000000E+00  0.00000000E+00
  0.00000000E+00  0.00000000E+00  0.00000000E+00
  0.00000000E+00  0.00000000E+00  0.00000000E+00
  0.00000000E+00  0.00000000E+00  0.00000000E+00
  0.00000000E+00  0.00000000E+00  0.00000000E+00
  0.00000000E+00  0.00000000E+00  0.00000000E+00
  0.00000000E+00  0.00000000E+00  0.00000000E+00
  0.00000000E+00  0.00000000E+00  0.00000000E+00
  0.00000000E+00  0.00000000E+00  0.00000000E+00
  0.00000000E+00  0.00000000E+00  0.00000000E+00
  0.00000000E+00  0.00000000E+00  0.00000000E+00
  0.00000000E+00  0.00000000E+00  0.00000000E+00
  0.00000000E+00  0.00000000E+00  0.00000000E+00
  0.00000000E+00  0.00000000E+00  0.00000000E+00
  0.00000000E+00  0.00000000E+00  0.00000000E+00
  0.00000000E+00  0.00000000E+00  0.00000000E+00
  0.00000000E+00  0.00000000E+00  0.00000000E+00
  0.00000000E+00  0.00000000E+00  0.00000000E+00
  0.00000000E+00  0.00000000E+00  0.00000000E+00
  0.00000000E+00  0.00000000E+00  0.00000000E+00
  0.00000000E+00  0.00000000E+00  0.00000000E+00
  0.00000000E+00  0.00000000E+00  0.00000000E+00
  0.00000000E+00  0.00000000E+00  0.00000000E+00
  0.00000000E+00  0.00000000E+00  0.00000000E+00
  0.00000000E+00  0.00000000E+00  0.00000000E+00
  0.00000000E+00  0.00000000E+00  0.00000000E+00
  0.00000000E+00  0.00000000E+00  0.00000000E+00
  0.00000000E+00  0.00000000E+00  0.00000000E+00
  0.00000000E+00  0.00000000E+00  0.00000000E+00
  0.00000000E+00  0.00000000E+00  0.00000000E+00
  0.00000000E+00  0.00000000E+00  0.00000000E+00
  0.00000000E+00  0.00000000E+00  0.00000000E+00
  0.00000000E+00  0.00000000E+00  0.00000000E+00
  0.00000000E+00  0.00000000E+00  0.00000000E+00
  0.00000000E+00  0.00000000E+00  0.00000000E+00
  0.00000000E+00  0.00000000E+00  0.00000000E+00
  0.00000000E+00  0.00000000E+00  0.00000000E+00
  0.00000000E+00  0.00000000E+00  0.00000000E+00
  0.00000000E+00  0.00000000E+00  0.00000000E+00
  0.00000000E+00  0.00000000E+00  0.00000000E+00
  0.00000000E+00  0.00000000E+00  0.00000000E+00
  0.00000000E+00  0.00000000E+00  0.00000000E+00
  0.00000000E+00  0.00000000E+00  0.00000000E+00
  0.00000000E+00  0.00000000E+00  0.00000000E+00
  0.00000000E+00  0.00000000E+00  0.00000000E+00
  0.00000000E+00  0.00000000E+00  0.00000000E+00
  0.00000000E+00  0.00000000E+00  0.00000000E+00
  0.00000000E+00  0.00000000E+00  0.00000000E+00
  0.00000000E+00  0.00000000E+00  0.00000000E+00
  0.00000000E+00  0.00000000E+00  0.00000000E+00
  0.00000000E+00  0.00000000E+00  0.00000000E+00
  0.00000000E+00  0.00000000E+00  0.00000000E+00
  0.00000000E+00  0.00000000E+00  0.00000000E+00
  0.00000000E+00  0.00000000E+00  0.00000000E+00
  0.00000000E+00  0.00000000E+00  0.00000000E+00
  0.00000000E+00  0.00000000E+00  0.00000000E+00
  0.00000000E+00  0.00000000E+00  0.00000000E+00
  0.00000000E+00  0.00000000E+00  0.00000000E+00
  0.00000000E+00  0.00000000E+00  0.00000000E+00
  0.00000000E+00  0.00000000E+00  0.00000000E+00
  0.00000000E+00  0.00000000E+00  0.00000000E+00
  0.00000000E+00  0.00000000E+00  0.00000000E+00
  0.00000000E+00  0.00000000E+00  0.00000000E+00
  0.00000000E+00  0.00000000E+00  0.00000000E+00
  0.00000000E+00  0.00000000E+00  0.00000000E+00
  0.00000000E+00  0.00000000E+00  0.00000000E+00
  0.00000000E+00  0.00000000E+00  0.00000000E+00
  0.00000000E+00  0.00000000E+00  0.00000000E+00
  0.00000000E+00  0.00000000E+00  0.00000000E+00
  0.00000000E+00  0.00000000E+00  0.00000000E+00
  0.00000000E+00  0.00000000E+00  0.00000000E+00
  0.00000000E+00  0.00000000E+00  0.00000000E+00
  0.00000000E+00  0.00000000E+00  0.00000000E+00
  0.00000000E+00  0.00000000E+00  0.00000000E+00
  0.00000000E+00  0.00000000E+00  0.00000000E+00
  0.00000000E+00  0.00000000E+00  0.00000000E+00
  0.00000000E+00  0.00000000E+00  0.00000000E+00
  0.00000000E+00  0.00000000E+00  0.00000000E+00
  0.00000000E+00  0.00000000E+00  0.00000000E+00
  0.00000000E+00  0.00000000E+00  0.00000000E+00
  0.00000000E+00  0.00000000E+00  0.00000000E+00
  0.00000000E+00  0.00000000E+00  0.00000000E+00
  0.00000000E+00  0.00000000E+00  0.00000000E+00
  0.00000000E+00  0.00000000E+00  0.00000000E+00
  0.00000000E+00  0.00000000E+00  0.00000000E+00
  0.00000000E+00  0.00000000E+00  0.00000000E+00
  0.00000000E+00  0.00000000E+00  0.00000000E+00
  0.00000000E+00  0.00000000E+00  0.00000000E+00
  0.00000000E+00  0.00000000E+00  0.00000000E+00
  0.00000000E+00  0.00000000E+00  0.00000000E+00
  0.00000000E+00  0.00000000E+00  0.00000000E+00
  0.00000000E+00  0.00000000E+00  0.00000000E+00
  0.00000000E+00  0.00000000E+00  0.00000000E+00
  0.00000000E+00  0.00000000E+00  0.00000000E+00
  0.00000000E+00  0.00000000E+00  0.00000000E+00
  0.00000000E+00  0.00000000E+00  0.00000000E+00
  0.00000000E+00  0.00000000E+00  0.00000000E+00
  0.00000000E+00  0.00000000E+00  0.00000000E+00
  0.00000000E+00  0.00000000E+00  0.00000000E+00
  0.00000000E+00  0.00000000E+00  0.00000000E+00
  0.00000000E+00  0.00000000E+00  0.00000000E+00
  0.00000000E+00  0.00000000E+00  0.00000000E+00
  0.00000000E+00  0.00000000E+00  0.00000000E+00
  0.00000000E+00  0.00000000E+00  0.00000000E+00
  0.00000000E+00  0.00000000E+00  0.00000000E+00
  0.00000000E+00  0.00000000E+00  0.00000000E+00
  0.00000000E+00  0.00000000E+00  0.00000000E+00
  0.00000000E+00  0.00000000E+00  0.00000000E+00
  0.00000000E+00  0.00000000E+00  0.00000000E+00
  0.00000000E+00  0.00000000E+00  0.00000000E+00
  0.00000000E+00  0.00000000E+00  0.00000000E+00
  0.00000000E+00  0.00000000E+00  0.00000000E+00
  0.00000000E+00  0.00000000E+00  0.00000000E+00
  0.00000000E+00  0.00000000E+00  0.00000000E+00
  0.00000000E+00  0.00000000E+00  0.00000000E+00
  0.00000000E+00  0.00000000E+00  0.00000000E+00
  0.00000000E+00  0.00000000E+00  0.00000000E+00
  0.00000000E+00  0.00000000E+00  0.00000000E+00
  0.00000000E+00  0.00000000E+00  0.00000000E+00
  0.00000000E+00  0.00000000E+00  0.00000000E+00
  0.00000000E+00  0.00000000E+00  0.00000000E+00
  0.00000000E+00  0.00000000E+00  0.00000000E+00
  0.00000000E+00  0.00000000E+00  0.00000000E+00
  0.00000000E+00  0.00000000E+00  0.00000000E+00
  0.00000000E+00  0.00000000E+00  0.00000000E+00
  0.00000000E+00  0.00000000E+00  0.00000000E+00
  0.00000000E+00  0.00000000E+00  0.00000000E+00
  0.00000000E+00  0.00000000E+00  0.00000000E+00
  0.00000000E+00  0.00000000E+00  0.00000000E+00
  0.00000000E+00  0.00000000E+00  0.00000000E+00
  0.00000000E+00  0.00000000E+00  0.00000000E+00
  0.00000000E+00  0.00000000E+00  0.00000000E+00
  0.00000000E+00  0.00000000E+00  0.00000000E+00
  0.00000000E+00  0.00000000E+00  0.00000000E+00
  0.00000000E+00  0.00000000E+00  0.00000000E+00
  0.00000000E+00  0.00000000E+00  0.00000000E+00
  0.00000000E+00  0.00000000E+00  0.00000000E+00
  0.00000000E+00  0.00000000E+00  0.00000000E+00
  0.00000000E+00  0.00000000E+00  0.00000000E+00
  0.00000000E+00  0.00000000E+00  0.00000000E+00
  0.00000000E+00  0.00000000E+00  0.00000000E+00
  0.00000000E+00  0.00000000E+00  0.00000000E+00
  0.00000000E+00  0.00000000E+00  0.00000000E+00
  0.00000000E+00  0.00000000E+00  0.00000000E+00
  0.00000000E+00  0.00000000E+00  0.00000000E+00
  0.00000000E+00  0.00000000E+00  0.00000000E+00
  0.00000000E+00  0.00000000E+00  0.00000000E+00
  0.00000000E+00  0.00000000E+00  0.00000000E+00
  0.00000000E+00  0.00000000E+00  0.00000000E+00
  0.00000000E+00  0.00000000E+00  0.00000000E+00
  0.00000000E+00  0.00000000E+00  0.00000000E+00
  0.00000000E+00  0.00000000E+00  0.00000000E+00
  0.00000000E+00  0.00000000E+00  0.00000000E+00
  0.00000000E+00  0.00000000E+00  0.00000000E+00
  0.00000000E+00  0.00000000E+00  0.00000000E+00
  0.00000000E+00  0.00000000E+00  0.00000000E+00
  0.00000000E+00  0.00000000E+00  0.00000000E+00
  0.00000000E+00  0.00000000E+00  0.00000000E+00
  0.00000000E+00  0.00000000E+00  0.00000000E+00
  0.00000000E+00  0.00000000E+00  0.00000000E+00
