In36 Ga18 Cu12 Ag42 Se108               
   1.0000000000000000     
    16.5299040957471348   -0.0003937169312113   -7.5447935926888663
    -3.4409012760886997   16.1736707459906519   -7.5454778822185586
     0.0080168250926233    0.0105686033312490   21.8877012377722870
   In   Ga   Cu   Ag   Se
    36    18    12    42   108
Direct
  0.1702126856256925  0.5076888975675118  0.0009203862935507
  0.4945860104447135  0.5021667879462441  0.9977518226304412
  0.8331736716289839  0.5065663903920807  0.0021814634103308
  0.1697731659732753  0.1626210097892553  0.9978738458864171
  0.4950309340978976  0.1631731059303902  0.9993912595574770
  0.8345393792695077  0.1599768463675844  0.0000355029094408
  0.1679169599516257  0.4998738855159885  0.3335926068874215
  0.4953835807065090  0.5009553697572429  0.3370448187064099
  0.8361577477860109  0.5040007636716481  0.3367750211662681
  0.1667194352238184  0.8360986132375317  0.3287156901670940
  0.8402278642751071  0.8366226109259998  0.3324897269527369
  0.8347866966613822  0.1608020921590736  0.3335440875791349
  0.1737188854893574  0.5068681215568915  0.6696363771218259
  0.4944221820805339  0.5057124303565175  0.6668504681636946
  0.1716885339149670  0.8306396891198133  0.6674671240867269
  0.8314370401250244  0.8294423836027818  0.6647178832776461
  0.8315754298369882  0.1627541304039326  0.6642461696340263
  0.2485490290421808  0.4107109990684989  0.1653279560711027
  0.5795697889165510  0.4178664407366242  0.1687266537956162
  0.9218387045020719  0.4143462597866119  0.1672872575325854
  0.5818951245515436  0.7600162286056076  0.1687869812829774
  0.2509900310938633  0.0810650417279817  0.1681264747691671
  0.5779948625583842  0.0750525885798936  0.1658656809461263
  0.9191787354917054  0.0773379139764288  0.1671911713117069
  0.2472851539543299  0.4200583593805476  0.4977635078816434
  0.5796631809233688  0.4149262823122868  0.5013828804967488
  0.9188559259023847  0.4202833869575500  0.5018136719625872
  0.2561545843545474  0.7480856266671267  0.5033388278627839
  0.2499025395166257  0.0831332693141533  0.4989446438224192
  0.5776538759002250  0.0830317639351463  0.4973604363433282
  0.9224226602252372  0.0823096307600721  0.5021937427024170
  0.5769409928276445  0.4184656019504160  0.8314270144680478
  0.9179601147443535  0.4180637407131442  0.8314900865173840
  0.5798025424520645  0.7519504514458006  0.8348389326575401
  0.5824506033244461  0.0759059885039974  0.8302632463760418
  0.9151174379040441  0.0785957083585131  0.8317146512711986
  0.1711904623941436  0.8307187096838504  0.9980922632715163
  0.4977091247044498  0.8322671295142428  0.0015222475092074
  0.8337663585566233  0.8342638641119038  0.9992845079983965
  0.4965228660158942  0.8376552826807782  0.3339461436638231
  0.1666306127399935  0.1616416824821059  0.3319827509406110
  0.4942284005240865  0.1616351122663531  0.3298225704511921
  0.8314600864622790  0.5049117283646751  0.6687106321851530
  0.4974253732265126  0.8303872595849384  0.6654757229057253
  0.1731918909097132  0.1669899727711979  0.6713962729229337
  0.4958276497484633  0.1642784030646567  0.6655595273830244
  0.2566909312858030  0.7577103554679852  0.1663719069938381
  0.9148117448150970  0.7570623835031469  0.1650463127120361
  0.5765730560906022  0.7504368390543448  0.4982914768972151
  0.9224863153678058  0.7494552016866791  0.5012948369137078
  0.2497212963316784  0.4194710413133080  0.8306859400156554
  0.2595276696768209  0.7527171549298970  0.8372590669975253
  0.9155538965811161  0.7519248955626026  0.8367370230972639
  0.2510344666003377  0.0801439838403226  0.8288414708907581
  0.9984870101483594  0.9989024043261736  0.3278763021011883
  0.3334310037083625  0.9961789582297484  0.3288439531839984
  0.3325110679162648  0.6664463942492134  0.6663149958397483
  0.3346009981441256  0.0029867516355893  0.6684345843591970
  0.4102627864059514  0.9169024175083607  0.1680379927083990
  0.7518388443750084  0.9133669795000756  0.1631223842224969
  0.0860260849604657  0.2435626854817983  0.1677481131165663
  0.4183883117887390  0.2482904133907766  0.1703864329726699
  0.0859128713158981  0.5886626278174489  0.5027324557834660
  0.4171940042048945  0.5892542863785550  0.5050325055650333
  0.4125392473387777  0.5923851612122633  0.8350421150314844
  0.7485747294656946  0.9074618297846158  0.8330075399648322
  0.9952817421383315  0.3296319039692222  0.0001664085513369
  0.3290999455818024  0.3280527401188920  0.9967354881084560
  0.6663044468791952  0.3303916037689518  0.9983003808050341
  0.0033867058451378  0.6777426639745556  0.0047862611391949
  0.3358354141599307  0.6684908931297073  0.9969423980153920
  0.6675048493738842  0.6754713640076631  0.0022671141443595
  0.0009117205367630  0.9967194025549659  0.9953527365162245
  0.3319615709389581  0.9970242735813315  0.9989109905664293
  0.6677545855018892  0.9936880194030238  0.0032939346242600
  0.0071874030596248  0.3262957873921124  0.3327073430279697
  0.3351665641959158  0.3305053928892079  0.3333160911863686
  0.6612944924525834  0.3267109493409208  0.3311973409830529
  0.9992590726609407  0.6710800389888476  0.3354838482540288
  0.3316086980546089  0.6752168536676919  0.3338899077497288
  0.6658630190435701  0.6753892797494387  0.3416072180543068
  0.6632956575366507  0.0000185962505199  0.3317408646299427
  0.0055594171250561  0.3346823378454857  0.6684729727331700
  0.3387909685568857  0.3357449805744324  0.6731466590584105
  0.6642455724424963  0.3318968488968608  0.6673463714217007
  0.0045650352857436  0.6680404546818366  0.6718330191332313
  0.6626009869078402  0.6736275299537837  0.6628133640225329
  0.0054345770831006  0.9997619009710306  0.6656293684132635
  0.6576690492015231  0.9936736142074238  0.6678374549883301
  0.0854401457832097  0.5855559855182406  0.1624472931242522
  0.4196700361915973  0.5903548145182143  0.1725057777351680
  0.7483456191365789  0.5842794237212203  0.1668205607183992
  0.0862739288030596  0.9150144405553391  0.1661847303166795
  0.7491326914046539  0.2531458886938438  0.1692857148597113
  0.7512238631828367  0.5861782096212380  0.5028252835886491
  0.0896427955902155  0.9213806076125195  0.5035458775057506
  0.4131639447473674  0.9149761342047498  0.5027570179198193
  0.7436867020093985  0.9049816388107317  0.4947455995730650
  0.0889672518737612  0.2447676301047679  0.5002695409976852
  0.4114015531715083  0.2427461753910478  0.4938439171710058
  0.7541515446050582  0.2609436084739087  0.5030218992207836
  0.0814808939838585  0.5907706078668511  0.8305074533859411
  0.7527380234470229  0.5862202391226106  0.8325386142335489
  0.0829814550955987  0.9103289555570200  0.8346978986230198
  0.4127420140837401  0.9111966423214284  0.8270740439503754
  0.0926231341651871  0.2500130241715226  0.8347993448416204
  0.4136878153341357  0.2442187772442566  0.8263896862650384
  0.7472932501533336  0.2514015131019463  0.8302952959097709
  0.1253631865470766  0.4550788699526436  0.0788259725272695
  0.4533419851492368  0.4601003319501658  0.0830006390810496
  0.7936430705045154  0.4569321073916370  0.0841422144600728
  0.1393487030639307  0.7948947265534017  0.0834095208547723
  0.4549357461696601  0.8051155560940444  0.0856215384554417
  0.7971034259339547  0.8003298213707595  0.0846933885231564
  0.1241558064180595  0.1273946334370066  0.0858333805931153
  0.4544540334116789  0.1296908501744767  0.0895178281275903
  0.7924511794379114  0.1234995179727392  0.0873141070007719
  0.1192895221716483  0.4681671060555388  0.4204080169236519
  0.4529902237018106  0.4675880550944314  0.4265448985148765
  0.7878716993972930  0.4556739801213112  0.4150304106390195
  0.1325836293113554  0.7936114038203286  0.4177940706533647
  0.4645391344008445  0.7961610171590010  0.4172341224403198
  0.8060349858806219  0.7890335355835916  0.4195480217136520
  0.1187912753120557  0.1156200541918651  0.4044087096102160
  0.4487209192269006  0.1165568820279432  0.4037406589681254
  0.7931287612543585  0.1263891351736319  0.4216778555025726
  0.1326573874635244  0.4626939468240181  0.7544113292103276
  0.4528441241623611  0.4741116381189343  0.7575685705734756
  0.7917639936541647  0.4596475214695275  0.7444144731415960
  0.1395835786658566  0.7894393684250858  0.7576603708652740
  0.4513723747236185  0.7835345539161125  0.7382737590528379
  0.7974430191220208  0.7956607293367881  0.7591573002294396
  0.1355122038272398  0.1231938210234276  0.7495072880868534
  0.4553695317742879  0.1165866275041552  0.7407528081088515
  0.7872935267350911  0.1198871236345838  0.7473238204876651
  0.2951247086024367  0.6374416622512200  0.0887224630994510
  0.6209322470918153  0.6296172769088102  0.0840661310370976
  0.9562568599957828  0.6383794743702467  0.0884263910600467
  0.2909912673379367  0.9495777861853227  0.0826734757878356
  0.6235813566140322  0.9452752276907148  0.0841471015136790
  0.9541346190306470  0.9494649868268823  0.0766934967985975
  0.3011592978011493  0.2856236203650155  0.0887523849257335
  0.6206194729735799  0.2913040568842646  0.0829634991359711
  0.9675812986962669  0.2827447502206866  0.0893112941229219
  0.3010076419381278  0.6224721770226864  0.4193440496031968
  0.6197632590563416  0.6316991660836919  0.4240388316713180
  0.9667901230869731  0.6301275503254757  0.4267478180424717
  0.2959721866822278  0.9614281635303783  0.4110023648712939
  0.6172558547754647  0.9523247778272221  0.4128763352004370
  0.9677982175013611  0.9634431104089813  0.4125964245627003
  0.2809618135182319  0.2842299467840164  0.4114575424360183
  0.6124386091497911  0.2816550320424938  0.4119772229627188
  0.9598990274551440  0.2895517760374062  0.4186049930371212
  0.3020310735378260  0.6359544148652674  0.7550750805212729
  0.6237152295683543  0.6284436545762304  0.7492805607205142
  0.9457507077713529  0.6292588761410727  0.7503644136105834
  0.2925428545586684  0.9653879178846481  0.7467765681842451
  0.6248456396471482  0.9406563439226616  0.7520128900672631
  0.9596961555158856  0.9544376715015872  0.7478432652677398
  0.2837014668208511  0.2938264392035848  0.7514655398020338
  0.6122541095294025  0.2853181085035175  0.7453223249529728
  0.9596647209743949  0.2885561472869327  0.7497987684745482
  0.1999866595803113  0.3645281167289909  0.2456216663883239
  0.5318019504442830  0.3697731690682957  0.2486564752821110
  0.8788599358860765  0.3761397188735671  0.2535142391517127
  0.2111334602236852  0.7148147541799545  0.2406722883873655
  0.5414083178383891  0.7225771657559079  0.2576186063162780
  0.8769408391287143  0.7110311199963988  0.2415917983909068
  0.2144163727128614  0.0435828618780150  0.2588928423759498
  0.5271839382978598  0.0369973898703151  0.2490661422052938
  0.8739778493187416  0.0290727907577164  0.2481698583637595
  0.2118169326287429  0.3768938641173705  0.5846565907915746
  0.5342734505776079  0.3744333234930082  0.5846930565301989
  0.8785972195833267  0.3891534873215363  0.5936229087355684
  0.2108131725228617  0.6981560493875349  0.5839465150570788
  0.5304189319303632  0.7117624489115073  0.5765348609824485
  0.8810398500540586  0.7099800988964233  0.5797060068348756
  0.2179718397717920  0.0485392957385073  0.5943505826808249
  0.5374323929236908  0.0481542566274200  0.5875343782065414
  0.8725345884544637  0.0344374279728754  0.5796757376493318
  0.2136300044940072  0.3837490182167826  0.9133362722043543
  0.5382705769343872  0.3741374053213349  0.9161941169266967
  0.8737834520021650  0.3784542139125691  0.9167581077307219
  0.2109238652701251  0.7163164850003412  0.9138955008560927
  0.5308694399358771  0.7101137689493981  0.9184365275154605
  0.8752373567406551  0.7180221728743561  0.9185344353389198
  0.2099717805194317  0.0386736316465104  0.9068171329199046
  0.5415135257646710  0.0376474312864374  0.9179202214687692
  0.8647477218861752  0.0276133130422735  0.9083052861912577
  0.0442062470131077  0.5452073612946648  0.2494662446342062
  0.3704302112466351  0.5415722439193544  0.2504088865899874
  0.7064377326049396  0.5458580577452139  0.2540908149384080
  0.0328079619823214  0.8773685020978874  0.2482982975359960
  0.3762143566685481  0.8785788158696448  0.2511221148139313
  0.7146733631941871  0.8812394638380496  0.2464702382466442
  0.0518221482437227  0.2010860213286918  0.2477449256396156
  0.3821542330790635  0.2063781559466378  0.2490985628762417
  0.7060835232340565  0.2002982550489492  0.2484596846836098
  0.0472719741555139  0.5469240982692085  0.5803836566717564
  0.3714598468421784  0.5531662676118145  0.5819810387912128
  0.7108913455469477  0.5398148761471617  0.5873684787309372
  0.0411208455212062  0.8666098485169798  0.5793248165860447
  0.3790850337175868  0.8811700475917590  0.5960739093772105
  0.6978740104383334  0.8657197801969119  0.5794523587644065
  0.0540699164547505  0.2050653638961819  0.5909981778294053
  0.3800386286053339  0.2078497625324687  0.5884595323907718
  0.7064470631675164  0.2072459539039784  0.5804338691189557
  0.0413383035613180  0.5477844155656868  0.9169943974472758
  0.3689483342552791  0.5391895137751064  0.9045575508181614
  0.7052178606303201  0.5445404650442285  0.9152025822952297
  0.0440955051430691  0.8628820984351790  0.9180007696089447
  0.3797819248598842  0.8698529428457036  0.9182455392863886
  0.7154622873191414  0.8728757533981621  0.9170436101667718
  0.0421681697135199  0.2059990326538284  0.9152588879687897
  0.3675606504982056  0.1993493201849432  0.9089798723591258
  0.7087998398201307  0.2032547054802336  0.9148945133647288

  0.00000000E+00  0.00000000E+00  0.00000000E+00
  0.00000000E+00  0.00000000E+00  0.00000000E+00
  0.00000000E+00  0.00000000E+00  0.00000000E+00
  0.00000000E+00  0.00000000E+00  0.00000000E+00
  0.00000000E+00  0.00000000E+00  0.00000000E+00
  0.00000000E+00  0.00000000E+00  0.00000000E+00
  0.00000000E+00  0.00000000E+00  0.00000000E+00
  0.00000000E+00  0.00000000E+00  0.00000000E+00
  0.00000000E+00  0.00000000E+00  0.00000000E+00
  0.00000000E+00  0.00000000E+00  0.00000000E+00
  0.00000000E+00  0.00000000E+00  0.00000000E+00
  0.00000000E+00  0.00000000E+00  0.00000000E+00
  0.00000000E+00  0.00000000E+00  0.00000000E+00
  0.00000000E+00  0.00000000E+00  0.00000000E+00
  0.00000000E+00  0.00000000E+00  0.00000000E+00
  0.00000000E+00  0.00000000E+00  0.00000000E+00
  0.00000000E+00  0.00000000E+00  0.00000000E+00
  0.00000000E+00  0.00000000E+00  0.00000000E+00
  0.00000000E+00  0.00000000E+00  0.00000000E+00
  0.00000000E+00  0.00000000E+00  0.00000000E+00
  0.00000000E+00  0.00000000E+00  0.00000000E+00
  0.00000000E+00  0.00000000E+00  0.00000000E+00
  0.00000000E+00  0.00000000E+00  0.00000000E+00
  0.00000000E+00  0.00000000E+00  0.00000000E+00
  0.00000000E+00  0.00000000E+00  0.00000000E+00
  0.00000000E+00  0.00000000E+00  0.00000000E+00
  0.00000000E+00  0.00000000E+00  0.00000000E+00
  0.00000000E+00  0.00000000E+00  0.00000000E+00
  0.00000000E+00  0.00000000E+00  0.00000000E+00
  0.00000000E+00  0.00000000E+00  0.00000000E+00
  0.00000000E+00  0.00000000E+00  0.00000000E+00
  0.00000000E+00  0.00000000E+00  0.00000000E+00
  0.00000000E+00  0.00000000E+00  0.00000000E+00
  0.00000000E+00  0.00000000E+00  0.00000000E+00
  0.00000000E+00  0.00000000E+00  0.00000000E+00
  0.00000000E+00  0.00000000E+00  0.00000000E+00
  0.00000000E+00  0.00000000E+00  0.00000000E+00
  0.00000000E+00  0.00000000E+00  0.00000000E+00
  0.00000000E+00  0.00000000E+00  0.00000000E+00
  0.00000000E+00  0.00000000E+00  0.00000000E+00
  0.00000000E+00  0.00000000E+00  0.00000000E+00
  0.00000000E+00  0.00000000E+00  0.00000000E+00
  0.00000000E+00  0.00000000E+00  0.00000000E+00
  0.00000000E+00  0.00000000E+00  0.00000000E+00
  0.00000000E+00  0.00000000E+00  0.00000000E+00
  0.00000000E+00  0.00000000E+00  0.00000000E+00
  0.00000000E+00  0.00000000E+00  0.00000000E+00
  0.00000000E+00  0.00000000E+00  0.00000000E+00
  0.00000000E+00  0.00000000E+00  0.00000000E+00
  0.00000000E+00  0.00000000E+00  0.00000000E+00
  0.00000000E+00  0.00000000E+00  0.00000000E+00
  0.00000000E+00  0.00000000E+00  0.00000000E+00
  0.00000000E+00  0.00000000E+00  0.00000000E+00
  0.00000000E+00  0.00000000E+00  0.00000000E+00
  0.00000000E+00  0.00000000E+00  0.00000000E+00
  0.00000000E+00  0.00000000E+00  0.00000000E+00
  0.00000000E+00  0.00000000E+00  0.00000000E+00
  0.00000000E+00  0.00000000E+00  0.00000000E+00
  0.00000000E+00  0.00000000E+00  0.00000000E+00
  0.00000000E+00  0.00000000E+00  0.00000000E+00
  0.00000000E+00  0.00000000E+00  0.00000000E+00
  0.00000000E+00  0.00000000E+00  0.00000000E+00
  0.00000000E+00  0.00000000E+00  0.00000000E+00
  0.00000000E+00  0.00000000E+00  0.00000000E+00
  0.00000000E+00  0.00000000E+00  0.00000000E+00
  0.00000000E+00  0.00000000E+00  0.00000000E+00
  0.00000000E+00  0.00000000E+00  0.00000000E+00
  0.00000000E+00  0.00000000E+00  0.00000000E+00
  0.00000000E+00  0.00000000E+00  0.00000000E+00
  0.00000000E+00  0.00000000E+00  0.00000000E+00
  0.00000000E+00  0.00000000E+00  0.00000000E+00
  0.00000000E+00  0.00000000E+00  0.00000000E+00
  0.00000000E+00  0.00000000E+00  0.00000000E+00
  0.00000000E+00  0.00000000E+00  0.00000000E+00
  0.00000000E+00  0.00000000E+00  0.00000000E+00
  0.00000000E+00  0.00000000E+00  0.00000000E+00
  0.00000000E+00  0.00000000E+00  0.00000000E+00
  0.00000000E+00  0.00000000E+00  0.00000000E+00
  0.00000000E+00  0.00000000E+00  0.00000000E+00
  0.00000000E+00  0.00000000E+00  0.00000000E+00
  0.00000000E+00  0.00000000E+00  0.00000000E+00
  0.00000000E+00  0.00000000E+00  0.00000000E+00
  0.00000000E+00  0.00000000E+00  0.00000000E+00
  0.00000000E+00  0.00000000E+00  0.00000000E+00
  0.00000000E+00  0.00000000E+00  0.00000000E+00
  0.00000000E+00  0.00000000E+00  0.00000000E+00
  0.00000000E+00  0.00000000E+00  0.00000000E+00
  0.00000000E+00  0.00000000E+00  0.00000000E+00
  0.00000000E+00  0.00000000E+00  0.00000000E+00
  0.00000000E+00  0.00000000E+00  0.00000000E+00
  0.00000000E+00  0.00000000E+00  0.00000000E+00
  0.00000000E+00  0.00000000E+00  0.00000000E+00
  0.00000000E+00  0.00000000E+00  0.00000000E+00
  0.00000000E+00  0.00000000E+00  0.00000000E+00
  0.00000000E+00  0.00000000E+00  0.00000000E+00
  0.00000000E+00  0.00000000E+00  0.00000000E+00
  0.00000000E+00  0.00000000E+00  0.00000000E+00
  0.00000000E+00  0.00000000E+00  0.00000000E+00
  0.00000000E+00  0.00000000E+00  0.00000000E+00
  0.00000000E+00  0.00000000E+00  0.00000000E+00
  0.00000000E+00  0.00000000E+00  0.00000000E+00
  0.00000000E+00  0.00000000E+00  0.00000000E+00
  0.00000000E+00  0.00000000E+00  0.00000000E+00
  0.00000000E+00  0.00000000E+00  0.00000000E+00
  0.00000000E+00  0.00000000E+00  0.00000000E+00
  0.00000000E+00  0.00000000E+00  0.00000000E+00
  0.00000000E+00  0.00000000E+00  0.00000000E+00
  0.00000000E+00  0.00000000E+00  0.00000000E+00
  0.00000000E+00  0.00000000E+00  0.00000000E+00
  0.00000000E+00  0.00000000E+00  0.00000000E+00
  0.00000000E+00  0.00000000E+00  0.00000000E+00
  0.00000000E+00  0.00000000E+00  0.00000000E+00
  0.00000000E+00  0.00000000E+00  0.00000000E+00
  0.00000000E+00  0.00000000E+00  0.00000000E+00
  0.00000000E+00  0.00000000E+00  0.00000000E+00
  0.00000000E+00  0.00000000E+00  0.00000000E+00
  0.00000000E+00  0.00000000E+00  0.00000000E+00
  0.00000000E+00  0.00000000E+00  0.00000000E+00
  0.00000000E+00  0.00000000E+00  0.00000000E+00
  0.00000000E+00  0.00000000E+00  0.00000000E+00
  0.00000000E+00  0.00000000E+00  0.00000000E+00
  0.00000000E+00  0.00000000E+00  0.00000000E+00
  0.00000000E+00  0.00000000E+00  0.00000000E+00
  0.00000000E+00  0.00000000E+00  0.00000000E+00
  0.00000000E+00  0.00000000E+00  0.00000000E+00
  0.00000000E+00  0.00000000E+00  0.00000000E+00
  0.00000000E+00  0.00000000E+00  0.00000000E+00
  0.00000000E+00  0.00000000E+00  0.00000000E+00
  0.00000000E+00  0.00000000E+00  0.00000000E+00
  0.00000000E+00  0.00000000E+00  0.00000000E+00
  0.00000000E+00  0.00000000E+00  0.00000000E+00
  0.00000000E+00  0.00000000E+00  0.00000000E+00
  0.00000000E+00  0.00000000E+00  0.00000000E+00
  0.00000000E+00  0.00000000E+00  0.00000000E+00
  0.00000000E+00  0.00000000E+00  0.00000000E+00
  0.00000000E+00  0.00000000E+00  0.00000000E+00
  0.00000000E+00  0.00000000E+00  0.00000000E+00
  0.00000000E+00  0.00000000E+00  0.00000000E+00
  0.00000000E+00  0.00000000E+00  0.00000000E+00
  0.00000000E+00  0.00000000E+00  0.00000000E+00
  0.00000000E+00  0.00000000E+00  0.00000000E+00
  0.00000000E+00  0.00000000E+00  0.00000000E+00
  0.00000000E+00  0.00000000E+00  0.00000000E+00
  0.00000000E+00  0.00000000E+00  0.00000000E+00
  0.00000000E+00  0.00000000E+00  0.00000000E+00
  0.00000000E+00  0.00000000E+00  0.00000000E+00
  0.00000000E+00  0.00000000E+00  0.00000000E+00
  0.00000000E+00  0.00000000E+00  0.00000000E+00
  0.00000000E+00  0.00000000E+00  0.00000000E+00
  0.00000000E+00  0.00000000E+00  0.00000000E+00
  0.00000000E+00  0.00000000E+00  0.00000000E+00
  0.00000000E+00  0.00000000E+00  0.00000000E+00
  0.00000000E+00  0.00000000E+00  0.00000000E+00
  0.00000000E+00  0.00000000E+00  0.00000000E+00
  0.00000000E+00  0.00000000E+00  0.00000000E+00
  0.00000000E+00  0.00000000E+00  0.00000000E+00
  0.00000000E+00  0.00000000E+00  0.00000000E+00
  0.00000000E+00  0.00000000E+00  0.00000000E+00
  0.00000000E+00  0.00000000E+00  0.00000000E+00
  0.00000000E+00  0.00000000E+00  0.00000000E+00
  0.00000000E+00  0.00000000E+00  0.00000000E+00
  0.00000000E+00  0.00000000E+00  0.00000000E+00
  0.00000000E+00  0.00000000E+00  0.00000000E+00
  0.00000000E+00  0.00000000E+00  0.00000000E+00
  0.00000000E+00  0.00000000E+00  0.00000000E+00
  0.00000000E+00  0.00000000E+00  0.00000000E+00
  0.00000000E+00  0.00000000E+00  0.00000000E+00
  0.00000000E+00  0.00000000E+00  0.00000000E+00
  0.00000000E+00  0.00000000E+00  0.00000000E+00
  0.00000000E+00  0.00000000E+00  0.00000000E+00
  0.00000000E+00  0.00000000E+00  0.00000000E+00
  0.00000000E+00  0.00000000E+00  0.00000000E+00
  0.00000000E+00  0.00000000E+00  0.00000000E+00
  0.00000000E+00  0.00000000E+00  0.00000000E+00
  0.00000000E+00  0.00000000E+00  0.00000000E+00
  0.00000000E+00  0.00000000E+00  0.00000000E+00
  0.00000000E+00  0.00000000E+00  0.00000000E+00
  0.00000000E+00  0.00000000E+00  0.00000000E+00
  0.00000000E+00  0.00000000E+00  0.00000000E+00
  0.00000000E+00  0.00000000E+00  0.00000000E+00
  0.00000000E+00  0.00000000E+00  0.00000000E+00
  0.00000000E+00  0.00000000E+00  0.00000000E+00
  0.00000000E+00  0.00000000E+00  0.00000000E+00
  0.00000000E+00  0.00000000E+00  0.00000000E+00
  0.00000000E+00  0.00000000E+00  0.00000000E+00
  0.00000000E+00  0.00000000E+00  0.00000000E+00
  0.00000000E+00  0.00000000E+00  0.00000000E+00
  0.00000000E+00  0.00000000E+00  0.00000000E+00
  0.00000000E+00  0.00000000E+00  0.00000000E+00
  0.00000000E+00  0.00000000E+00  0.00000000E+00
  0.00000000E+00  0.00000000E+00  0.00000000E+00
  0.00000000E+00  0.00000000E+00  0.00000000E+00
  0.00000000E+00  0.00000000E+00  0.00000000E+00
  0.00000000E+00  0.00000000E+00  0.00000000E+00
  0.00000000E+00  0.00000000E+00  0.00000000E+00
  0.00000000E+00  0.00000000E+00  0.00000000E+00
  0.00000000E+00  0.00000000E+00  0.00000000E+00
  0.00000000E+00  0.00000000E+00  0.00000000E+00
  0.00000000E+00  0.00000000E+00  0.00000000E+00
  0.00000000E+00  0.00000000E+00  0.00000000E+00
  0.00000000E+00  0.00000000E+00  0.00000000E+00
  0.00000000E+00  0.00000000E+00  0.00000000E+00
  0.00000000E+00  0.00000000E+00  0.00000000E+00
  0.00000000E+00  0.00000000E+00  0.00000000E+00
  0.00000000E+00  0.00000000E+00  0.00000000E+00
  0.00000000E+00  0.00000000E+00  0.00000000E+00
  0.00000000E+00  0.00000000E+00  0.00000000E+00
  0.00000000E+00  0.00000000E+00  0.00000000E+00
  0.00000000E+00  0.00000000E+00  0.00000000E+00
  0.00000000E+00  0.00000000E+00  0.00000000E+00
  0.00000000E+00  0.00000000E+00  0.00000000E+00
  0.00000000E+00  0.00000000E+00  0.00000000E+00
  0.00000000E+00  0.00000000E+00  0.00000000E+00
  0.00000000E+00  0.00000000E+00  0.00000000E+00
  0.00000000E+00  0.00000000E+00  0.00000000E+00
  0.00000000E+00  0.00000000E+00  0.00000000E+00
