Ga54 Cu18 Ag36 Se108                    
   1.0000000000000000     
    16.0719900332919003   -0.0036469214690746   -7.4115238828284573
    -3.4339118198590666   15.7166626565794658   -7.4460618449543468
     0.0011926448720489    0.0012103803198560   21.1176596278959963
   Ga   Cu   Ag   Se
    54    18    36   108
Direct
  0.1727195372087280  0.4947113836534527  0.0019285172282792
  0.4969133861990827  0.4987605588771444  0.0007262570601796
  0.8316527020979478  0.4996241999575162  0.0019318729448372
  0.1715320335676935  0.8366160128399329  0.0007301837286420
  0.4969508627651607  0.8355426941818109  0.0004528038765272
  0.8325880915686454  0.8341854798582276  0.0011439063803920
  0.1706218012336294  0.1698759306981685  0.0013040670166191
  0.4976066749002399  0.1681192921959465  0.0012976390988655
  0.8360331444731983  0.1696202595852370  0.0040883617447349
  0.1718368252317717  0.4976933286004552  0.3321751593265319
  0.4984043477974254  0.5055775417548318  0.3344019825731053
  0.8284901915273721  0.5015729675715477  0.3324326804936888
  0.1740783456288497  0.8325673789737777  0.3324898826780256
  0.4978354252588915  0.8288284711763581  0.3331000967241806
  0.8251241378141501  0.8283845185691590  0.3318095303176349
  0.1714188860882970  0.1675799044532837  0.3320954971069909
  0.4990168844978413  0.1669808698364363  0.3356069547313112
  0.8327723210683970  0.1689400908992695  0.3333200576201634
  0.1688739507675052  0.4961934152334280  0.6662991490819365
  0.4972167923457036  0.5012814801968020  0.6680641767422202
  0.8323068363645945  0.4956962153665572  0.6656199385894723
  0.1687151783925245  0.8349365951556607  0.6647235535838121
  0.5010355782319991  0.8388916080743414  0.6658577880994514
  0.8302837463669164  0.8386342314662372  0.6667829984928559
  0.1647157132106258  0.1657380943846007  0.6635067751843309
  0.5014781137320199  0.1619033805696333  0.6657216138808693
  0.8316010916089240  0.1611975443377105  0.6638704314483732
  0.2536752654147563  0.4177320911360596  0.1679893007039155
  0.5810199686385999  0.4210420891523796  0.1677075069975160
  0.9162949645214624  0.4157351701288334  0.1691620254258410
  0.2560463471680947  0.7475759726087077  0.1673537237040534
  0.5803071906581039  0.7439395073213362  0.1666887522262925
  0.9145359173408849  0.7472527229144603  0.1676952608219224
  0.2531027256192075  0.0881098762362313  0.1692125297019871
  0.5832223193588248  0.0852190306892666  0.1658211278659252
  0.9166055838001270  0.0888079332659757  0.1681959810923601
  0.2485725143840014  0.4131911479023671  0.4973056887070939
  0.5814473368523352  0.4150160287406095  0.5000256719206035
  0.9180038010030600  0.4126018485250782  0.4998674004932440
  0.2542892268829533  0.7508483925201759  0.4959398482370716
  0.5809971265824174  0.7561287335263458  0.4995049273188243
  0.9110464066580590  0.7511745348210681  0.4992608866691342
  0.2521543103163282  0.0831040195545967  0.4986295464781705
  0.5846575020282216  0.0768604981206451  0.4986223320869385
  0.9108293763106090  0.0819593105346357  0.4957400087983217
  0.2504432047157508  0.4127498200034125  0.8321101883734840
  0.5796627873476723  0.4165667443951762  0.8343957698183928
  0.9212821525935126  0.4122679930043134  0.8354100013489258
  0.2552363872199663  0.7517648232497081  0.8324714323687488
  0.5771596475761740  0.7525829771783350  0.8336631102695407
  0.9164531840440446  0.7505603310550413  0.8330249981015498
  0.2514119564754722  0.0868194915089049  0.8361704606440981
  0.5845522684784541  0.0830799895720418  0.8338574863651402
  0.9158111337451729  0.0858645278082051  0.8324548040646960
  0.3327708733986512  0.3370045832705770  0.0008825593781694
  0.3346604738462986  0.9994686468941225  0.9973218870539498
  0.3333200615791867  0.3360372013899209  0.3321915124423143
  0.3365894511525198  0.6675854299205497  0.3323384105462921
  0.6630903773326366  0.6675551523431409  0.3315667916101432
  0.3345278880718467  0.9967183984687225  0.3333988532499177
  0.6640090526342561  0.9985078285837119  0.6627482072417266
  0.4184867396333942  0.5798338672566175  0.1690235943009597
  0.7474967851935688  0.5815698899152437  0.1694288173523120
  0.0879777165871758  0.2551254624557089  0.1697092433659719
  0.7493239433878145  0.2529386050075573  0.1680515426197005
  0.4180351987517099  0.9191528453095117  0.4966554082386168
  0.7484568978343589  0.9122716126895725  0.4992800925149510
  0.0815342096394787  0.2462685877671476  0.4977831426307304
  0.7499777627287401  0.2488636915708113  0.5007793420639715
  0.4152903162875816  0.5831617157196902  0.8339806826212666
  0.4144716489022642  0.9200015746839370  0.8353923350336672
  0.0885204467344991  0.2502416038351569  0.8338513931966887
  0.0015096772213141  0.3264084923654238  0.9996339534006822
  0.6687167310110382  0.3366320460232899  0.0082045027406892
  0.0034576874006760  0.6661678226957903  0.9991307684449069
  0.3316920022660241  0.6602925390979522  0.9980253463007855
  0.6586064493452781  0.6666061923069151  0.9994489759240679
  0.0079857004500852  0.0047340842339096  0.0039993106585428
  0.6643227516630290  0.0077358554979270  0.0011145872014708
  0.9990689637659287  0.3316723979693563  0.3304972375887587
  0.6632881451992390  0.3290417322601940  0.3352967443487813
  0.9992713612979642  0.6688559627626773  0.3323743142707798
  0.0082858239899579  0.0005468307970560  0.3351514077805504
  0.6642623388777338  0.0012217531486201  0.3362255218665879
  0.9960492172182285  0.3262131471957375  0.6646423518152318
  0.3348265417522072  0.3355983131928895  0.6632437493587915
  0.6677829686836319  0.3292251788574134  0.6647718864307777
  0.9971676254820991  0.6674312717521786  0.6661479007635194
  0.3368553588829784  0.6730646032078340  0.6718354897348959
  0.6679165380381491  0.6681400924254035  0.6678793482705814
  0.9994633167247287  0.0037832354798937  0.6657648657551150
  0.3331082608847282  0.9958346981105635  0.6652211071410647
  0.0841704184415732  0.5848280317860457  0.1686933597556219
  0.0842631379327656  0.9189103933412568  0.1659965640599097
  0.4133441286296815  0.9179250249443882  0.1650924181348756
  0.7521497157191419  0.9178098111384827  0.1699080384796119
  0.4179009961435654  0.2500560244476446  0.1677978790011423
  0.0829424282590736  0.5853037111271107  0.5013352521366130
  0.4156457059158498  0.5815724830640789  0.4984850875143465
  0.7449030617160162  0.5826501396825350  0.4969013227831169
  0.0779625111184288  0.9166863939773933  0.4950708816394354
  0.4167706534527724  0.2454547276893919  0.4946326327924666
  0.0871862132188994  0.5843601188484371  0.8345372114280778
  0.7480027831401515  0.5826210557549487  0.8323335789339836
  0.0876886642033980  0.9171175468719639  0.8329645957234177
  0.7482712785894350  0.9210629655600258  0.8373775404451393
  0.4135687717835168  0.2477419092905322  0.8337375342401643
  0.7490802039448923  0.2475262439057389  0.8317915995020968
  0.1337182415346732  0.4566039470093841  0.0846153942928183
  0.4549799559382564  0.4577268208939316  0.0829596037941371
  0.7994625004775671  0.4666767552571258  0.0921208361291548
  0.1394532266276016  0.7917489639267004  0.0841108413443266
  0.4648133074659242  0.7895102555942870  0.0834095703205762
  0.7981521029827476  0.7897572416566518  0.0832185716226874
  0.1353905010938448  0.1380540025220469  0.0909261943578628
  0.4587449604187981  0.1181619432151635  0.0789947484256714
  0.7972712341861268  0.1357559658487730  0.0900733585844691
  0.1342683890295717  0.4597569681885361  0.4160029198976929
  0.4608597823615170  0.4515863943930611  0.4112151135244773
  0.7995677605333924  0.4560439696963883  0.4168797497389249
  0.1354566223171219  0.7931621479766733  0.4147280363250800
  0.4549018718025621  0.7925114712897923  0.4161127188703659
  0.7860252609883105  0.7899256721036778  0.4162596238955700
  0.1358258729973016  0.1341928863768729  0.4208746896445845
  0.4613556335852778  0.1120293654490965  0.4111457866081594
  0.7942949960269132  0.1327828997443845  0.4188194043589846
  0.1318359145257659  0.4538838028580869  0.7484772546106910
  0.4633910701679724  0.4669405058207872  0.7563996938583983
  0.8030757251795535  0.4553577468434398  0.7523138437231012
  0.1352583856715981  0.7889998385163750  0.7464409416829056
  0.4646878277040187  0.8066654109620259  0.7555090816952799
  0.7998532680420567  0.7957801557361108  0.7518466748349582
  0.1322063579401558  0.1315206370275490  0.7533095321625751
  0.4666180106965285  0.1244044099681929  0.7506808993021394
  0.7899873789211824  0.1160939167669284  0.7428432246496754
  0.2944972561393584  0.6190841219868304  0.0886965945909779
  0.6214279074524853  0.6190660174685405  0.0884778788225091
  0.9498868307210273  0.6245236127783684  0.0828137810228426
  0.2864630050338235  0.9660227505311170  0.0780599276872991
  0.6173922049361806  0.9583380990400698  0.0842064905147097
  0.9484689047943391  0.9615181565132502  0.0833914360220760
  0.2892253195671515  0.2965588962980377  0.0800403371678371
  0.6207250934043103  0.2908884766054598  0.0917729705734303
  0.9589966191119785  0.2913852933612944  0.0913860705151563
  0.2879001273052637  0.6261731114626699  0.4086343035485172
  0.6167852001432834  0.6319307572156703  0.4130098583498167
  0.9471798103638847  0.6264487798825940  0.4165181100175062
  0.2940056057127691  0.9595972518648068  0.4159649502542848
  0.6226874963834561  0.9494264490735063  0.4198653965245924
  0.9416304160453492  0.9551006262670398  0.4098668784828590
  0.2883954974340739  0.2949800140593197  0.4108542208687567
  0.6226165936883419  0.2875451448880213  0.4245987776415490
  0.9581903524741051  0.2881103661360029  0.4200178723023598
  0.2913661516345840  0.6208751608990255  0.7539344828601671
  0.6131774367416867  0.6281004717944398  0.7505243924262288
  0.9492017236033448  0.6228546999249289  0.7499295278516058
  0.2899259460760391  0.9594031064232382  0.7555580604062371
  0.6211883411593604  0.9631750692066561  0.7452920017787079
  0.9514291811652456  0.9601542442132143  0.7509856390361875
  0.2832390806508229  0.2895380113941499  0.7457148917159984
  0.6144062379336503  0.2915933792738343  0.7493399207302716
  0.9572624188424896  0.2828936450394224  0.7548061142856284
  0.2122526639384290  0.3746735697871415  0.2494143844938179
  0.5425013309731952  0.3878272394658850  0.2533389220785836
  0.8656337782818753  0.3782458836798881  0.2471014312842428
  0.2180352377747639  0.7122263148882766  0.2529873424201128
  0.5377573101949480  0.7044841219494700  0.2493146195292653
  0.8640437466300384  0.7079144003012487  0.2453954669981613
  0.2190308096035665  0.0467574626032743  0.2548531968011432
  0.5411998905512405  0.0524254462772689  0.2499951425261600
  0.8785780789550159  0.0523370142247117  0.2527834055189757
  0.1992837978862880  0.3723874279638224  0.5746917995940848
  0.5404802463047105  0.3834419331942414  0.5853018465777282
  0.8675648133938410  0.3736117083860719  0.5780949961502557
  0.2116661083841507  0.7184408940103140  0.5806075582924635
  0.5420317185199153  0.7183963520788126  0.5832624906449695
  0.8709276503773111  0.7187748098457263  0.5840190405436445
  0.2080154134642456  0.0477934678971437  0.5809981048831574
  0.5425747816267545  0.0392867887919834  0.5822626627576142
  0.8653277763003899  0.0394393767251984  0.5742662957444438
  0.2106762284815886  0.3721764230945510  0.9156832066458875
  0.5409402986346805  0.3813373818623091  0.9190932363747208
  0.8758566424192082  0.3817916628744058  0.9194624726772744
  0.2126556381268898  0.7192412091561522  0.9166905594292274
  0.5295186131976806  0.7115527251655962  0.9118037882028744
  0.8750089512928909  0.7171760434853596  0.9171297028313177
  0.2169176496040137  0.0493595005663607  0.9227255374262668
  0.5313884263678048  0.0458184659908767  0.9110903814313644
  0.8782407464295616  0.0533097140245786  0.9195952774035874
  0.0431502546094080  0.5315698289359858  0.2520571153200777
  0.3747324644409460  0.5438092981324587  0.2511234168474630
  0.7051585642409677  0.5446893946661078  0.2511891808485487
  0.0438994710416836  0.8626393823313165  0.2489096707627141
  0.3754109300231789  0.8725265955875301  0.2541968394532788
  0.7024619041691551  0.8644885847110118  0.2490831431625935
  0.0476856647899737  0.2022085733180887  0.2444875074962454
  0.3755833743070198  0.2105208926468976  0.2579013044384197
  0.7101935050398538  0.2038016533573312  0.2449338425338752
  0.0422480129920118  0.5321212334608916  0.5851446690917328
  0.3718596585416520  0.5338586771170455  0.5836812992955984
  0.7070590776391583  0.5321897467699088  0.5832688530849026
  0.0398897649063414  0.8670421912093644  0.5816491782368090
  0.3787713702985798  0.8709109231717136  0.5750809424876522
  0.7064651209556772  0.8780032387956282  0.5829792551038793
  0.0405872189911136  0.1976608882186071  0.5744636136580112
  0.3782320190834767  0.1989926066061045  0.5830496953696382
  0.7098134293363572  0.1981429087246269  0.5769283333013178
  0.0474727215680630  0.5297795626598756  0.9182388542902942
  0.3764040468313965  0.5321553640602446  0.9102521352689834
  0.7062515032471239  0.5330253530736968  0.9173443075434804
  0.0434095083347970  0.8673720279387851  0.9168764772432212
  0.3756914808279816  0.8778401167625631  0.9167254051606122
  0.7051842517493085  0.8683181820380526  0.9195014261203198
  0.0464277954844192  0.2005534775447089  0.9097279429461054
  0.3728238365863774  0.2107144993172980  0.9246514004579680
  0.7092276027716693  0.2025720694756927  0.9206317987757799

  0.00000000E+00  0.00000000E+00  0.00000000E+00
  0.00000000E+00  0.00000000E+00  0.00000000E+00
  0.00000000E+00  0.00000000E+00  0.00000000E+00
  0.00000000E+00  0.00000000E+00  0.00000000E+00
  0.00000000E+00  0.00000000E+00  0.00000000E+00
  0.00000000E+00  0.00000000E+00  0.00000000E+00
  0.00000000E+00  0.00000000E+00  0.00000000E+00
  0.00000000E+00  0.00000000E+00  0.00000000E+00
  0.00000000E+00  0.00000000E+00  0.00000000E+00
  0.00000000E+00  0.00000000E+00  0.00000000E+00
  0.00000000E+00  0.00000000E+00  0.00000000E+00
  0.00000000E+00  0.00000000E+00  0.00000000E+00
  0.00000000E+00  0.00000000E+00  0.00000000E+00
  0.00000000E+00  0.00000000E+00  0.00000000E+00
  0.00000000E+00  0.00000000E+00  0.00000000E+00
  0.00000000E+00  0.00000000E+00  0.00000000E+00
  0.00000000E+00  0.00000000E+00  0.00000000E+00
  0.00000000E+00  0.00000000E+00  0.00000000E+00
  0.00000000E+00  0.00000000E+00  0.00000000E+00
  0.00000000E+00  0.00000000E+00  0.00000000E+00
  0.00000000E+00  0.00000000E+00  0.00000000E+00
  0.00000000E+00  0.00000000E+00  0.00000000E+00
  0.00000000E+00  0.00000000E+00  0.00000000E+00
  0.00000000E+00  0.00000000E+00  0.00000000E+00
  0.00000000E+00  0.00000000E+00  0.00000000E+00
  0.00000000E+00  0.00000000E+00  0.00000000E+00
  0.00000000E+00  0.00000000E+00  0.00000000E+00
  0.00000000E+00  0.00000000E+00  0.00000000E+00
  0.00000000E+00  0.00000000E+00  0.00000000E+00
  0.00000000E+00  0.00000000E+00  0.00000000E+00
  0.00000000E+00  0.00000000E+00  0.00000000E+00
  0.00000000E+00  0.00000000E+00  0.00000000E+00
  0.00000000E+00  0.00000000E+00  0.00000000E+00
  0.00000000E+00  0.00000000E+00  0.00000000E+00
  0.00000000E+00  0.00000000E+00  0.00000000E+00
  0.00000000E+00  0.00000000E+00  0.00000000E+00
  0.00000000E+00  0.00000000E+00  0.00000000E+00
  0.00000000E+00  0.00000000E+00  0.00000000E+00
  0.00000000E+00  0.00000000E+00  0.00000000E+00
  0.00000000E+00  0.00000000E+00  0.00000000E+00
  0.00000000E+00  0.00000000E+00  0.00000000E+00
  0.00000000E+00  0.00000000E+00  0.00000000E+00
  0.00000000E+00  0.00000000E+00  0.00000000E+00
  0.00000000E+00  0.00000000E+00  0.00000000E+00
  0.00000000E+00  0.00000000E+00  0.00000000E+00
  0.00000000E+00  0.00000000E+00  0.00000000E+00
  0.00000000E+00  0.00000000E+00  0.00000000E+00
  0.00000000E+00  0.00000000E+00  0.00000000E+00
  0.00000000E+00  0.00000000E+00  0.00000000E+00
  0.00000000E+00  0.00000000E+00  0.00000000E+00
  0.00000000E+00  0.00000000E+00  0.00000000E+00
  0.00000000E+00  0.00000000E+00  0.00000000E+00
  0.00000000E+00  0.00000000E+00  0.00000000E+00
  0.00000000E+00  0.00000000E+00  0.00000000E+00
  0.00000000E+00  0.00000000E+00  0.00000000E+00
  0.00000000E+00  0.00000000E+00  0.00000000E+00
  0.00000000E+00  0.00000000E+00  0.00000000E+00
  0.00000000E+00  0.00000000E+00  0.00000000E+00
  0.00000000E+00  0.00000000E+00  0.00000000E+00
  0.00000000E+00  0.00000000E+00  0.00000000E+00
  0.00000000E+00  0.00000000E+00  0.00000000E+00
  0.00000000E+00  0.00000000E+00  0.00000000E+00
  0.00000000E+00  0.00000000E+00  0.00000000E+00
  0.00000000E+00  0.00000000E+00  0.00000000E+00
  0.00000000E+00  0.00000000E+00  0.00000000E+00
  0.00000000E+00  0.00000000E+00  0.00000000E+00
  0.00000000E+00  0.00000000E+00  0.00000000E+00
  0.00000000E+00  0.00000000E+00  0.00000000E+00
  0.00000000E+00  0.00000000E+00  0.00000000E+00
  0.00000000E+00  0.00000000E+00  0.00000000E+00
  0.00000000E+00  0.00000000E+00  0.00000000E+00
  0.00000000E+00  0.00000000E+00  0.00000000E+00
  0.00000000E+00  0.00000000E+00  0.00000000E+00
  0.00000000E+00  0.00000000E+00  0.00000000E+00
  0.00000000E+00  0.00000000E+00  0.00000000E+00
  0.00000000E+00  0.00000000E+00  0.00000000E+00
  0.00000000E+00  0.00000000E+00  0.00000000E+00
  0.00000000E+00  0.00000000E+00  0.00000000E+00
  0.00000000E+00  0.00000000E+00  0.00000000E+00
  0.00000000E+00  0.00000000E+00  0.00000000E+00
  0.00000000E+00  0.00000000E+00  0.00000000E+00
  0.00000000E+00  0.00000000E+00  0.00000000E+00
  0.00000000E+00  0.00000000E+00  0.00000000E+00
  0.00000000E+00  0.00000000E+00  0.00000000E+00
  0.00000000E+00  0.00000000E+00  0.00000000E+00
  0.00000000E+00  0.00000000E+00  0.00000000E+00
  0.00000000E+00  0.00000000E+00  0.00000000E+00
  0.00000000E+00  0.00000000E+00  0.00000000E+00
  0.00000000E+00  0.00000000E+00  0.00000000E+00
  0.00000000E+00  0.00000000E+00  0.00000000E+00
  0.00000000E+00  0.00000000E+00  0.00000000E+00
  0.00000000E+00  0.00000000E+00  0.00000000E+00
  0.00000000E+00  0.00000000E+00  0.00000000E+00
  0.00000000E+00  0.00000000E+00  0.00000000E+00
  0.00000000E+00  0.00000000E+00  0.00000000E+00
  0.00000000E+00  0.00000000E+00  0.00000000E+00
  0.00000000E+00  0.00000000E+00  0.00000000E+00
  0.00000000E+00  0.00000000E+00  0.00000000E+00
  0.00000000E+00  0.00000000E+00  0.00000000E+00
  0.00000000E+00  0.00000000E+00  0.00000000E+00
  0.00000000E+00  0.00000000E+00  0.00000000E+00
  0.00000000E+00  0.00000000E+00  0.00000000E+00
  0.00000000E+00  0.00000000E+00  0.00000000E+00
  0.00000000E+00  0.00000000E+00  0.00000000E+00
  0.00000000E+00  0.00000000E+00  0.00000000E+00
  0.00000000E+00  0.00000000E+00  0.00000000E+00
  0.00000000E+00  0.00000000E+00  0.00000000E+00
  0.00000000E+00  0.00000000E+00  0.00000000E+00
  0.00000000E+00  0.00000000E+00  0.00000000E+00
  0.00000000E+00  0.00000000E+00  0.00000000E+00
  0.00000000E+00  0.00000000E+00  0.00000000E+00
  0.00000000E+00  0.00000000E+00  0.00000000E+00
  0.00000000E+00  0.00000000E+00  0.00000000E+00
  0.00000000E+00  0.00000000E+00  0.00000000E+00
  0.00000000E+00  0.00000000E+00  0.00000000E+00
  0.00000000E+00  0.00000000E+00  0.00000000E+00
  0.00000000E+00  0.00000000E+00  0.00000000E+00
  0.00000000E+00  0.00000000E+00  0.00000000E+00
  0.00000000E+00  0.00000000E+00  0.00000000E+00
  0.00000000E+00  0.00000000E+00  0.00000000E+00
  0.00000000E+00  0.00000000E+00  0.00000000E+00
  0.00000000E+00  0.00000000E+00  0.00000000E+00
  0.00000000E+00  0.00000000E+00  0.00000000E+00
  0.00000000E+00  0.00000000E+00  0.00000000E+00
  0.00000000E+00  0.00000000E+00  0.00000000E+00
  0.00000000E+00  0.00000000E+00  0.00000000E+00
  0.00000000E+00  0.00000000E+00  0.00000000E+00
  0.00000000E+00  0.00000000E+00  0.00000000E+00
  0.00000000E+00  0.00000000E+00  0.00000000E+00
  0.00000000E+00  0.00000000E+00  0.00000000E+00
  0.00000000E+00  0.00000000E+00  0.00000000E+00
  0.00000000E+00  0.00000000E+00  0.00000000E+00
  0.00000000E+00  0.00000000E+00  0.00000000E+00
  0.00000000E+00  0.00000000E+00  0.00000000E+00
  0.00000000E+00  0.00000000E+00  0.00000000E+00
  0.00000000E+00  0.00000000E+00  0.00000000E+00
  0.00000000E+00  0.00000000E+00  0.00000000E+00
  0.00000000E+00  0.00000000E+00  0.00000000E+00
  0.00000000E+00  0.00000000E+00  0.00000000E+00
  0.00000000E+00  0.00000000E+00  0.00000000E+00
  0.00000000E+00  0.00000000E+00  0.00000000E+00
  0.00000000E+00  0.00000000E+00  0.00000000E+00
  0.00000000E+00  0.00000000E+00  0.00000000E+00
  0.00000000E+00  0.00000000E+00  0.00000000E+00
  0.00000000E+00  0.00000000E+00  0.00000000E+00
  0.00000000E+00  0.00000000E+00  0.00000000E+00
  0.00000000E+00  0.00000000E+00  0.00000000E+00
  0.00000000E+00  0.00000000E+00  0.00000000E+00
  0.00000000E+00  0.00000000E+00  0.00000000E+00
  0.00000000E+00  0.00000000E+00  0.00000000E+00
  0.00000000E+00  0.00000000E+00  0.00000000E+00
  0.00000000E+00  0.00000000E+00  0.00000000E+00
  0.00000000E+00  0.00000000E+00  0.00000000E+00
  0.00000000E+00  0.00000000E+00  0.00000000E+00
  0.00000000E+00  0.00000000E+00  0.00000000E+00
  0.00000000E+00  0.00000000E+00  0.00000000E+00
  0.00000000E+00  0.00000000E+00  0.00000000E+00
  0.00000000E+00  0.00000000E+00  0.00000000E+00
  0.00000000E+00  0.00000000E+00  0.00000000E+00
  0.00000000E+00  0.00000000E+00  0.00000000E+00
  0.00000000E+00  0.00000000E+00  0.00000000E+00
  0.00000000E+00  0.00000000E+00  0.00000000E+00
  0.00000000E+00  0.00000000E+00  0.00000000E+00
  0.00000000E+00  0.00000000E+00  0.00000000E+00
  0.00000000E+00  0.00000000E+00  0.00000000E+00
  0.00000000E+00  0.00000000E+00  0.00000000E+00
  0.00000000E+00  0.00000000E+00  0.00000000E+00
  0.00000000E+00  0.00000000E+00  0.00000000E+00
  0.00000000E+00  0.00000000E+00  0.00000000E+00
  0.00000000E+00  0.00000000E+00  0.00000000E+00
  0.00000000E+00  0.00000000E+00  0.00000000E+00
  0.00000000E+00  0.00000000E+00  0.00000000E+00
  0.00000000E+00  0.00000000E+00  0.00000000E+00
  0.00000000E+00  0.00000000E+00  0.00000000E+00
  0.00000000E+00  0.00000000E+00  0.00000000E+00
  0.00000000E+00  0.00000000E+00  0.00000000E+00
  0.00000000E+00  0.00000000E+00  0.00000000E+00
  0.00000000E+00  0.00000000E+00  0.00000000E+00
  0.00000000E+00  0.00000000E+00  0.00000000E+00
  0.00000000E+00  0.00000000E+00  0.00000000E+00
  0.00000000E+00  0.00000000E+00  0.00000000E+00
  0.00000000E+00  0.00000000E+00  0.00000000E+00
  0.00000000E+00  0.00000000E+00  0.00000000E+00
  0.00000000E+00  0.00000000E+00  0.00000000E+00
  0.00000000E+00  0.00000000E+00  0.00000000E+00
  0.00000000E+00  0.00000000E+00  0.00000000E+00
  0.00000000E+00  0.00000000E+00  0.00000000E+00
  0.00000000E+00  0.00000000E+00  0.00000000E+00
  0.00000000E+00  0.00000000E+00  0.00000000E+00
  0.00000000E+00  0.00000000E+00  0.00000000E+00
  0.00000000E+00  0.00000000E+00  0.00000000E+00
  0.00000000E+00  0.00000000E+00  0.00000000E+00
  0.00000000E+00  0.00000000E+00  0.00000000E+00
  0.00000000E+00  0.00000000E+00  0.00000000E+00
  0.00000000E+00  0.00000000E+00  0.00000000E+00
  0.00000000E+00  0.00000000E+00  0.00000000E+00
  0.00000000E+00  0.00000000E+00  0.00000000E+00
  0.00000000E+00  0.00000000E+00  0.00000000E+00
  0.00000000E+00  0.00000000E+00  0.00000000E+00
  0.00000000E+00  0.00000000E+00  0.00000000E+00
  0.00000000E+00  0.00000000E+00  0.00000000E+00
  0.00000000E+00  0.00000000E+00  0.00000000E+00
  0.00000000E+00  0.00000000E+00  0.00000000E+00
  0.00000000E+00  0.00000000E+00  0.00000000E+00
  0.00000000E+00  0.00000000E+00  0.00000000E+00
  0.00000000E+00  0.00000000E+00  0.00000000E+00
  0.00000000E+00  0.00000000E+00  0.00000000E+00
  0.00000000E+00  0.00000000E+00  0.00000000E+00
  0.00000000E+00  0.00000000E+00  0.00000000E+00
  0.00000000E+00  0.00000000E+00  0.00000000E+00
  0.00000000E+00  0.00000000E+00  0.00000000E+00
  0.00000000E+00  0.00000000E+00  0.00000000E+00
  0.00000000E+00  0.00000000E+00  0.00000000E+00
  0.00000000E+00  0.00000000E+00  0.00000000E+00
  0.00000000E+00  0.00000000E+00  0.00000000E+00
  0.00000000E+00  0.00000000E+00  0.00000000E+00
