In24 Ga30 Cu36 Ag18 Se108               
   1.0000000000000000     
    16.0603109609118029    0.0004072515853255   -7.2560384345806535
    -3.2450018599857482   15.6860542774018423   -7.2339074624187045
     0.0022385764673587    0.0029463350416087   21.4233636924966966
   In   Ga   Cu   Ag   Se
    24    30    36    18   108
Direct
  0.8254657533216871  0.8314061108331856  0.9991365171523796
  0.5001428347204424  0.1702537919693583  0.9983803927952621
  0.8311884766538569  0.1651820216991311  0.0026087189914250
  0.8319080069198890  0.4994150514600904  0.3331506849032095
  0.1666665779689822  0.8287452352055595  0.3338417972302068
  0.4987610751382547  0.8261889719894668  0.3322322119142669
  0.8349191642462515  0.8293755569311330  0.3327270532817792
  0.1667568557203012  0.1690725857640558  0.3332726601016489
  0.4964670858168390  0.1737253707937114  0.3363291399967778
  0.8351707442112826  0.1707426126341929  0.3346140143133596
  0.1658845465883516  0.5032884995069296  0.6645028343107384
  0.8319088682538691  0.5024345328791071  0.6646398336771497
  0.5005530737218677  0.8292943736090237  0.6641747443217980
  0.1634519024157370  0.1650529285442417  0.6661736942329384
  0.2502226042501690  0.4160712637035147  0.1689862918494143
  0.5859272923995533  0.0834585897287070  0.1643293227840346
  0.9174969499302321  0.7498982528519633  0.5027560379274405
  0.2515852474174523  0.0834505969420434  0.4999603312352718
  0.5820127496981087  0.0828303555569434  0.5060155674148206
  0.9193593039859707  0.0826713117796274  0.5036415015085822
  0.2524806227832102  0.4153231370592749  0.8355654110914728
  0.9135522389829163  0.7532355165547955  0.8316216607145108
  0.2436145744596203  0.0834179828984674  0.8325766657978875
  0.9144091556939316  0.0770890689778199  0.8294031450247559
  0.1636078434671120  0.4964693009269112  0.0009444875883631
  0.4998277756498979  0.4996080317263463  0.9968099537286719
  0.8349674416755661  0.5008312002876920  0.9983645543516104
  0.1699417507168803  0.8377820854937070  0.9997597049982687
  0.5057331049587006  0.8313995543476054  0.9990765958854908
  0.1691034786356340  0.1654101719375447  0.0000755878315957
  0.1697980177715550  0.5029798620351613  0.3368305394889006
  0.5025685784049685  0.5053930632637531  0.3384028092260678
  0.5010973068158222  0.5057571982536118  0.6655752867275524
  0.1672820874767851  0.8315535306057313  0.6665664334568149
  0.8282162084725826  0.8293021455319831  0.6643593447517446
  0.5021664347841792  0.1665788148205110  0.6708911120903593
  0.8345596274213634  0.1640084660832528  0.6682648543775471
  0.5822086592349152  0.4214828039716210  0.1688125488964261
  0.9230916082959553  0.4180759458513279  0.1669792924594873
  0.2461935872857026  0.7446880545086856  0.1641038084775559
  0.5875470367958684  0.7459398147927274  0.1614803857778497
  0.9147509545131953  0.7452804747532795  0.1674931520578937
  0.2489499417772834  0.0882790585314481  0.1670842345210559
  0.9121143163465817  0.0819955253033413  0.1668491375079313
  0.2551030993189798  0.4220959361749692  0.5008007007324125
  0.5772404877050619  0.4248252119025793  0.4992731597832289
  0.9194658325845850  0.4231264063111553  0.5034676396721096
  0.2487909491361791  0.7449653932899523  0.5007049838366910
  0.5837958031147323  0.7475723697501664  0.5013940674648438
  0.5842331509689132  0.4200687692298004  0.8331975708352459
  0.9146516409825765  0.4121454942055394  0.8313133010836609
  0.2535723794982019  0.7539570620976335  0.8339894431145467
  0.5825672127399883  0.7456203822196770  0.8302488830036623
  0.5883711293834466  0.0851288983459426  0.8315273952639188
  0.3315567645963355  0.3327197699456690  0.9956668804355502
  0.6649477485286752  0.6630880361659592  0.9960774432952491
  0.3273374193246497  0.9954316786649784  0.9961970721557378
  0.6674780618315950  0.9962503862246166  0.9972444005221917
  0.3326195849258013  0.3397969561168566  0.3387940159885616
  0.6669684041384656  0.3431964782765888  0.3361309244215036
  0.0076713634213377  0.6619937732098577  0.3340788384850342
  0.3327899921130282  0.6680444291571561  0.3375146034828518
  0.6646960947090719  0.6689036983861456  0.3368312784557119
  0.9964975164313898  0.9982714640068053  0.3323378901356833
  0.3350269840840738  0.9996271178882239  0.3330599606509281
  0.9985520525544231  0.3299145734466933  0.6697415383506282
  0.0020383093587242  0.6726485348233311  0.6643246201724082
  0.3300104690971750  0.6628604820348230  0.6655003752781994
  0.6641155336122324  0.6667849058069990  0.6663056038143296
  0.9974948314501333  0.9951050648534192  0.6678826124023516
  0.6677301168821046  0.9991791297696224  0.6667455678266805
  0.0821506534156669  0.5842287118598648  0.1698963856529758
  0.7521391862635625  0.9142657066719408  0.1610637957212973
  0.0857874366435425  0.2552803118303899  0.1713333917602142
  0.7515113880747890  0.2492899353376146  0.1680885972911383
  0.0875146521100945  0.5881260221824931  0.5019551184655526
  0.4131801035681733  0.5823632296173784  0.4980129804334013
  0.7457150326227051  0.5842599024707482  0.5001898486747010
  0.0816907350245728  0.9080700793763370  0.4994863832774215
  0.4174508886036250  0.9145870984423539  0.4988808402613003
  0.7524156098208081  0.9151415970515089  0.5083040770168381
  0.0837399496371702  0.2515621770079193  0.4990271845014718
  0.4177678238963054  0.2545087498701903  0.5018576430544215
  0.4233117177470334  0.5889072665762285  0.8342858560137358
  0.7418750720758922  0.5808084216572880  0.8327889573203464
  0.0840087538892789  0.9108112252656539  0.8292898166194149
  0.7414888508757684  0.9129270597305776  0.8281660469860768
  0.0807363658643325  0.2538484980156781  0.8344886453666192
  0.4235571240969591  0.2519144813416219  0.8353514827710953
  0.7470455467594448  0.2492755572001286  0.8281634342501363
  0.9960305105748546  0.3317553811073495  0.9952163338876048
  0.6618857642246638  0.3326457318881566  0.9994479682754971
  0.9993200945041210  0.6651375058254061  0.9997665085347194
  0.3360375085109553  0.6686092315623640  0.0009941250200995
  0.0076731813828985  0.0076495196888828  0.0043939803033055
  0.0037793838147167  0.3398278946733910  0.3338704484374517
  0.6625609307775235  0.9848427573117391  0.3290924559588788
  0.3375578723812538  0.3406217363384627  0.6679621625758330
  0.6646980976740906  0.3399711787039337  0.6687667298420763
  0.3378984550836890  0.9992240382674851  0.6677058321382532
  0.4171920965583453  0.5775966589589885  0.1640233096136683
  0.7494626781635887  0.5775980145565285  0.1624359776240496
  0.0841160478850753  0.9159940379628750  0.1680253760479289
  0.4091524814518479  0.9135977594417497  0.1636574234824906
  0.4198093961846112  0.2526005312927495  0.1678776069853569
  0.7490368229469411  0.2575954919608634  0.4996418990233025
  0.0835322091567576  0.5854452803784937  0.8354152819463394
  0.4257479981253880  0.9159665189436907  0.8392146830052170
  0.1220165418580166  0.4665358892484406  0.0860686531085477
  0.4584364728185690  0.4483012074192061  0.0738523933509256
  0.8023171128811839  0.4533830978964559  0.0795563986230263
  0.1322610232308890  0.7910787812888316  0.0802508426068371
  0.4706046301644307  0.7940856289151199  0.0845091902693866
  0.7866436079388208  0.7829901231729366  0.0864501791067127
  0.1321434006164424  0.1402802945960318  0.0912730588190271
  0.4479168217353191  0.1146797636510684  0.0740293882250143
  0.7840052804789721  0.1211238725759927  0.0885289409104004
  0.1341122830009738  0.4698074037066107  0.4241817256469460
  0.4532789570427269  0.4615695002758073  0.4152811248576924
  0.7900805688311152  0.4606658757038957  0.4245897820042259
  0.1233594477373643  0.7856008369160818  0.4223127531818562
  0.4559515858519845  0.7871461519576144  0.4225625051018156
  0.7822061542045518  0.7925548524488448  0.4190095253863859
  0.1137489960376428  0.1241853510347894  0.4151661182958009
  0.4492850144905631  0.1264119879857191  0.4198010479325447
  0.7874884400809137  0.1206951137801084  0.4147218725190029
  0.1187920153588138  0.4504280587995666  0.7448556179184322
  0.4678225146494768  0.4709517948796034  0.7542300301065694
  0.7976201579389297  0.4670865989045154  0.7602218081190273
  0.1263606077340071  0.7907760925729619  0.7487457657026866
  0.4560511185853358  0.7783482377221986  0.7469685737275853
  0.7788186974486280  0.7933301012914598  0.7439673767483654
  0.1081932502698635  0.1253053432509503  0.7491117391962305
  0.4644414653931932  0.1312197950634157  0.7565874891423832
  0.7836182416826034  0.1259991710043025  0.7455257238703155
  0.2831999014138233  0.6214069886580020  0.0804707214907978
  0.6211301128634119  0.6220711586728740  0.0746250543055851
  0.9591611164714706  0.6225259861113912  0.0887699663491119
  0.2857194932853631  0.9657676301321771  0.0802546792998697
  0.6315251850104247  0.9515644943710768  0.0770134038791497
  0.9531802622500223  0.9633896991061022  0.0853956486009153
  0.2892627197553068  0.2889755343999241  0.0729506000314473
  0.6316334382011135  0.2991409893262826  0.0965268820581642
  0.9655182317573150  0.2934344587584334  0.0909943437720813
  0.2928800110772087  0.6253988294218047  0.4175364120767853
  0.6273712138952874  0.6275508594180721  0.4182678559808579
  0.9684552571329874  0.6246584007112475  0.4162176136351476
  0.3013766168773984  0.9560983595184922  0.4148109697628612
  0.6317993921356404  0.9528622358875865  0.4257230169217152
  0.9697152311996717  0.9559594933668762  0.4184933527469568
  0.2999142357788855  0.3001586791136219  0.4230242382499156
  0.6227612534430591  0.3081871610213724  0.4176989340468253
  0.9656965969074918  0.3016896403630369  0.4262453310133338
  0.3009556067338650  0.6319593727446602  0.7562057246909717
  0.6282793537764277  0.6248636551450204  0.7487000000663002
  0.9620525642281663  0.6311760449180568  0.7436131620135882
  0.2887974280983130  0.9514159004224041  0.7492428824731903
  0.6298992572267750  0.9626797496302046  0.7505584605716749
  0.9590829764659148  0.9440378919839887  0.7437159659788435
  0.3010977673870059  0.2864338683911143  0.7526545154942568
  0.6226062041022047  0.2915171270614465  0.7540619660613075
  0.9577553328923898  0.2892147245153112  0.7497648556046173
  0.2068821674537205  0.3742054401091863  0.2582616515602254
  0.5470344000290623  0.3855911169273298  0.2562544028753706
  0.8700554568884726  0.3709692999379826  0.2385981558039703
  0.2097014759938176  0.6973793081084878  0.2457102262923456
  0.5514913535948764  0.7049428219282206  0.2455463150254928
  0.8870280851253938  0.7009013787255114  0.2525057498559704
  0.2186017340549284  0.0418860323306447  0.2504711481141655
  0.5405014536787647  0.0435867427697545  0.2514179580311335
  0.8750066090221651  0.0340395722353719  0.2465745446511676
  0.2053206970681813  0.3722994997839777  0.5725565609048644
  0.5344868125856763  0.3803132402812466  0.5784053833401046
  0.8880066373655140  0.3774829145596001  0.5864653709850103
  0.2105226770412543  0.7070365664556562  0.5862625765723593
  0.5421227775753579  0.6963101724455996  0.5770276418163931
  0.8695380411877309  0.7029511913714543  0.5864983414357781
  0.2000059063759494  0.0304458559443646  0.5772398771450753
  0.5384619086699942  0.0358677950495334  0.5916299664782869
  0.8738877818720141  0.0355739614965671  0.5896963654211831
  0.2050493935442219  0.3714926441376747  0.9213982919411166
  0.5367127537321323  0.3783948345287982  0.9110074653489164
  0.8644666716203560  0.3735765829820608  0.9086378111370124
  0.2104893865712683  0.7182909950776519  0.9163651488266567
  0.5460278343392062  0.7072918900335452  0.9162290089434038
  0.8643596196101697  0.6994953271361695  0.9100130697120861
  0.2033981220894248  0.0350256164566787  0.9190929022064793
  0.5553860713104513  0.0451127249489787  0.9168627319406539
  0.8651441357501071  0.0296142562065853  0.9110593220767100
  0.0463864547499284  0.5418828430270679  0.2519500531239061
  0.3800740146746904  0.5490284358612811  0.2614632613856926
  0.6993774336879000  0.5474492996381386  0.2519715621128782
  0.0320247688460995  0.8730100094815114  0.2502308925216923
  0.3647991409689624  0.8707695406610583  0.2494775013956669
  0.7084909875640406  0.8673002168097455  0.2367329137574075
  0.0347372599524078  0.2036298175983262  0.2396014999810205
  0.3638803115943148  0.2163965446512961  0.2515484694437760
  0.7078642662974346  0.2240650868115708  0.2532076943191939
  0.0367350212455406  0.5513234101604425  0.5785087448059869
  0.3759990400443201  0.5473159771543123  0.5843201600085521
  0.6991956065101945  0.5473524451513612  0.5794646461021244
  0.0482771064660241  0.8817385005377361  0.5896677240628279
  0.3695210247498224  0.8669488687710682  0.5719258770304023
  0.7058992898134306  0.8746383225575869  0.5851893028916422
  0.0418777383222064  0.2206317453076991  0.5836085295775462
  0.3870246223255904  0.2100893701180198  0.5854629248785486
  0.7159997372368636  0.2088125802761880  0.5893313029449843
  0.0400873357860831  0.5294567214271595  0.9150602999113246
  0.3841761566438535  0.5437971347888109  0.9137942035736799
  0.7087368428081007  0.5429830258411741  0.9176648283992606
  0.0498272412760201  0.8779675930836461  0.9165714223814305
  0.3769471586211779  0.8753555136925257  0.9246778836149190
  0.6977055505331791  0.8749940330060113  0.9077381225944521
  0.0485886820722641  0.2046206781284710  0.9149198328538475
  0.3725786039088490  0.2171330888195158  0.9121396177507251
  0.7075656520399818  0.2079310298638006  0.9082301429041379

  0.00000000E+00  0.00000000E+00  0.00000000E+00
  0.00000000E+00  0.00000000E+00  0.00000000E+00
  0.00000000E+00  0.00000000E+00  0.00000000E+00
  0.00000000E+00  0.00000000E+00  0.00000000E+00
  0.00000000E+00  0.00000000E+00  0.00000000E+00
  0.00000000E+00  0.00000000E+00  0.00000000E+00
  0.00000000E+00  0.00000000E+00  0.00000000E+00
  0.00000000E+00  0.00000000E+00  0.00000000E+00
  0.00000000E+00  0.00000000E+00  0.00000000E+00
  0.00000000E+00  0.00000000E+00  0.00000000E+00
  0.00000000E+00  0.00000000E+00  0.00000000E+00
  0.00000000E+00  0.00000000E+00  0.00000000E+00
  0.00000000E+00  0.00000000E+00  0.00000000E+00
  0.00000000E+00  0.00000000E+00  0.00000000E+00
  0.00000000E+00  0.00000000E+00  0.00000000E+00
  0.00000000E+00  0.00000000E+00  0.00000000E+00
  0.00000000E+00  0.00000000E+00  0.00000000E+00
  0.00000000E+00  0.00000000E+00  0.00000000E+00
  0.00000000E+00  0.00000000E+00  0.00000000E+00
  0.00000000E+00  0.00000000E+00  0.00000000E+00
  0.00000000E+00  0.00000000E+00  0.00000000E+00
  0.00000000E+00  0.00000000E+00  0.00000000E+00
  0.00000000E+00  0.00000000E+00  0.00000000E+00
  0.00000000E+00  0.00000000E+00  0.00000000E+00
  0.00000000E+00  0.00000000E+00  0.00000000E+00
  0.00000000E+00  0.00000000E+00  0.00000000E+00
  0.00000000E+00  0.00000000E+00  0.00000000E+00
  0.00000000E+00  0.00000000E+00  0.00000000E+00
  0.00000000E+00  0.00000000E+00  0.00000000E+00
  0.00000000E+00  0.00000000E+00  0.00000000E+00
  0.00000000E+00  0.00000000E+00  0.00000000E+00
  0.00000000E+00  0.00000000E+00  0.00000000E+00
  0.00000000E+00  0.00000000E+00  0.00000000E+00
  0.00000000E+00  0.00000000E+00  0.00000000E+00
  0.00000000E+00  0.00000000E+00  0.00000000E+00
  0.00000000E+00  0.00000000E+00  0.00000000E+00
  0.00000000E+00  0.00000000E+00  0.00000000E+00
  0.00000000E+00  0.00000000E+00  0.00000000E+00
  0.00000000E+00  0.00000000E+00  0.00000000E+00
  0.00000000E+00  0.00000000E+00  0.00000000E+00
  0.00000000E+00  0.00000000E+00  0.00000000E+00
  0.00000000E+00  0.00000000E+00  0.00000000E+00
  0.00000000E+00  0.00000000E+00  0.00000000E+00
  0.00000000E+00  0.00000000E+00  0.00000000E+00
  0.00000000E+00  0.00000000E+00  0.00000000E+00
  0.00000000E+00  0.00000000E+00  0.00000000E+00
  0.00000000E+00  0.00000000E+00  0.00000000E+00
  0.00000000E+00  0.00000000E+00  0.00000000E+00
  0.00000000E+00  0.00000000E+00  0.00000000E+00
  0.00000000E+00  0.00000000E+00  0.00000000E+00
  0.00000000E+00  0.00000000E+00  0.00000000E+00
  0.00000000E+00  0.00000000E+00  0.00000000E+00
  0.00000000E+00  0.00000000E+00  0.00000000E+00
  0.00000000E+00  0.00000000E+00  0.00000000E+00
  0.00000000E+00  0.00000000E+00  0.00000000E+00
  0.00000000E+00  0.00000000E+00  0.00000000E+00
  0.00000000E+00  0.00000000E+00  0.00000000E+00
  0.00000000E+00  0.00000000E+00  0.00000000E+00
  0.00000000E+00  0.00000000E+00  0.00000000E+00
  0.00000000E+00  0.00000000E+00  0.00000000E+00
  0.00000000E+00  0.00000000E+00  0.00000000E+00
  0.00000000E+00  0.00000000E+00  0.00000000E+00
  0.00000000E+00  0.00000000E+00  0.00000000E+00
  0.00000000E+00  0.00000000E+00  0.00000000E+00
  0.00000000E+00  0.00000000E+00  0.00000000E+00
  0.00000000E+00  0.00000000E+00  0.00000000E+00
  0.00000000E+00  0.00000000E+00  0.00000000E+00
  0.00000000E+00  0.00000000E+00  0.00000000E+00
  0.00000000E+00  0.00000000E+00  0.00000000E+00
  0.00000000E+00  0.00000000E+00  0.00000000E+00
  0.00000000E+00  0.00000000E+00  0.00000000E+00
  0.00000000E+00  0.00000000E+00  0.00000000E+00
  0.00000000E+00  0.00000000E+00  0.00000000E+00
  0.00000000E+00  0.00000000E+00  0.00000000E+00
  0.00000000E+00  0.00000000E+00  0.00000000E+00
  0.00000000E+00  0.00000000E+00  0.00000000E+00
  0.00000000E+00  0.00000000E+00  0.00000000E+00
  0.00000000E+00  0.00000000E+00  0.00000000E+00
  0.00000000E+00  0.00000000E+00  0.00000000E+00
  0.00000000E+00  0.00000000E+00  0.00000000E+00
  0.00000000E+00  0.00000000E+00  0.00000000E+00
  0.00000000E+00  0.00000000E+00  0.00000000E+00
  0.00000000E+00  0.00000000E+00  0.00000000E+00
  0.00000000E+00  0.00000000E+00  0.00000000E+00
  0.00000000E+00  0.00000000E+00  0.00000000E+00
  0.00000000E+00  0.00000000E+00  0.00000000E+00
  0.00000000E+00  0.00000000E+00  0.00000000E+00
  0.00000000E+00  0.00000000E+00  0.00000000E+00
  0.00000000E+00  0.00000000E+00  0.00000000E+00
  0.00000000E+00  0.00000000E+00  0.00000000E+00
  0.00000000E+00  0.00000000E+00  0.00000000E+00
  0.00000000E+00  0.00000000E+00  0.00000000E+00
  0.00000000E+00  0.00000000E+00  0.00000000E+00
  0.00000000E+00  0.00000000E+00  0.00000000E+00
  0.00000000E+00  0.00000000E+00  0.00000000E+00
  0.00000000E+00  0.00000000E+00  0.00000000E+00
  0.00000000E+00  0.00000000E+00  0.00000000E+00
  0.00000000E+00  0.00000000E+00  0.00000000E+00
  0.00000000E+00  0.00000000E+00  0.00000000E+00
  0.00000000E+00  0.00000000E+00  0.00000000E+00
  0.00000000E+00  0.00000000E+00  0.00000000E+00
  0.00000000E+00  0.00000000E+00  0.00000000E+00
  0.00000000E+00  0.00000000E+00  0.00000000E+00
  0.00000000E+00  0.00000000E+00  0.00000000E+00
  0.00000000E+00  0.00000000E+00  0.00000000E+00
  0.00000000E+00  0.00000000E+00  0.00000000E+00
  0.00000000E+00  0.00000000E+00  0.00000000E+00
  0.00000000E+00  0.00000000E+00  0.00000000E+00
  0.00000000E+00  0.00000000E+00  0.00000000E+00
  0.00000000E+00  0.00000000E+00  0.00000000E+00
  0.00000000E+00  0.00000000E+00  0.00000000E+00
  0.00000000E+00  0.00000000E+00  0.00000000E+00
  0.00000000E+00  0.00000000E+00  0.00000000E+00
  0.00000000E+00  0.00000000E+00  0.00000000E+00
  0.00000000E+00  0.00000000E+00  0.00000000E+00
  0.00000000E+00  0.00000000E+00  0.00000000E+00
  0.00000000E+00  0.00000000E+00  0.00000000E+00
  0.00000000E+00  0.00000000E+00  0.00000000E+00
  0.00000000E+00  0.00000000E+00  0.00000000E+00
  0.00000000E+00  0.00000000E+00  0.00000000E+00
  0.00000000E+00  0.00000000E+00  0.00000000E+00
  0.00000000E+00  0.00000000E+00  0.00000000E+00
  0.00000000E+00  0.00000000E+00  0.00000000E+00
  0.00000000E+00  0.00000000E+00  0.00000000E+00
  0.00000000E+00  0.00000000E+00  0.00000000E+00
  0.00000000E+00  0.00000000E+00  0.00000000E+00
  0.00000000E+00  0.00000000E+00  0.00000000E+00
  0.00000000E+00  0.00000000E+00  0.00000000E+00
  0.00000000E+00  0.00000000E+00  0.00000000E+00
  0.00000000E+00  0.00000000E+00  0.00000000E+00
  0.00000000E+00  0.00000000E+00  0.00000000E+00
  0.00000000E+00  0.00000000E+00  0.00000000E+00
  0.00000000E+00  0.00000000E+00  0.00000000E+00
  0.00000000E+00  0.00000000E+00  0.00000000E+00
  0.00000000E+00  0.00000000E+00  0.00000000E+00
  0.00000000E+00  0.00000000E+00  0.00000000E+00
  0.00000000E+00  0.00000000E+00  0.00000000E+00
  0.00000000E+00  0.00000000E+00  0.00000000E+00
  0.00000000E+00  0.00000000E+00  0.00000000E+00
  0.00000000E+00  0.00000000E+00  0.00000000E+00
  0.00000000E+00  0.00000000E+00  0.00000000E+00
  0.00000000E+00  0.00000000E+00  0.00000000E+00
  0.00000000E+00  0.00000000E+00  0.00000000E+00
  0.00000000E+00  0.00000000E+00  0.00000000E+00
  0.00000000E+00  0.00000000E+00  0.00000000E+00
  0.00000000E+00  0.00000000E+00  0.00000000E+00
  0.00000000E+00  0.00000000E+00  0.00000000E+00
  0.00000000E+00  0.00000000E+00  0.00000000E+00
  0.00000000E+00  0.00000000E+00  0.00000000E+00
  0.00000000E+00  0.00000000E+00  0.00000000E+00
  0.00000000E+00  0.00000000E+00  0.00000000E+00
  0.00000000E+00  0.00000000E+00  0.00000000E+00
  0.00000000E+00  0.00000000E+00  0.00000000E+00
  0.00000000E+00  0.00000000E+00  0.00000000E+00
  0.00000000E+00  0.00000000E+00  0.00000000E+00
  0.00000000E+00  0.00000000E+00  0.00000000E+00
  0.00000000E+00  0.00000000E+00  0.00000000E+00
  0.00000000E+00  0.00000000E+00  0.00000000E+00
  0.00000000E+00  0.00000000E+00  0.00000000E+00
  0.00000000E+00  0.00000000E+00  0.00000000E+00
  0.00000000E+00  0.00000000E+00  0.00000000E+00
  0.00000000E+00  0.00000000E+00  0.00000000E+00
  0.00000000E+00  0.00000000E+00  0.00000000E+00
  0.00000000E+00  0.00000000E+00  0.00000000E+00
  0.00000000E+00  0.00000000E+00  0.00000000E+00
  0.00000000E+00  0.00000000E+00  0.00000000E+00
  0.00000000E+00  0.00000000E+00  0.00000000E+00
  0.00000000E+00  0.00000000E+00  0.00000000E+00
  0.00000000E+00  0.00000000E+00  0.00000000E+00
  0.00000000E+00  0.00000000E+00  0.00000000E+00
  0.00000000E+00  0.00000000E+00  0.00000000E+00
  0.00000000E+00  0.00000000E+00  0.00000000E+00
  0.00000000E+00  0.00000000E+00  0.00000000E+00
  0.00000000E+00  0.00000000E+00  0.00000000E+00
  0.00000000E+00  0.00000000E+00  0.00000000E+00
  0.00000000E+00  0.00000000E+00  0.00000000E+00
  0.00000000E+00  0.00000000E+00  0.00000000E+00
  0.00000000E+00  0.00000000E+00  0.00000000E+00
  0.00000000E+00  0.00000000E+00  0.00000000E+00
  0.00000000E+00  0.00000000E+00  0.00000000E+00
  0.00000000E+00  0.00000000E+00  0.00000000E+00
  0.00000000E+00  0.00000000E+00  0.00000000E+00
  0.00000000E+00  0.00000000E+00  0.00000000E+00
  0.00000000E+00  0.00000000E+00  0.00000000E+00
  0.00000000E+00  0.00000000E+00  0.00000000E+00
  0.00000000E+00  0.00000000E+00  0.00000000E+00
  0.00000000E+00  0.00000000E+00  0.00000000E+00
  0.00000000E+00  0.00000000E+00  0.00000000E+00
  0.00000000E+00  0.00000000E+00  0.00000000E+00
  0.00000000E+00  0.00000000E+00  0.00000000E+00
  0.00000000E+00  0.00000000E+00  0.00000000E+00
  0.00000000E+00  0.00000000E+00  0.00000000E+00
  0.00000000E+00  0.00000000E+00  0.00000000E+00
  0.00000000E+00  0.00000000E+00  0.00000000E+00
  0.00000000E+00  0.00000000E+00  0.00000000E+00
  0.00000000E+00  0.00000000E+00  0.00000000E+00
  0.00000000E+00  0.00000000E+00  0.00000000E+00
  0.00000000E+00  0.00000000E+00  0.00000000E+00
  0.00000000E+00  0.00000000E+00  0.00000000E+00
  0.00000000E+00  0.00000000E+00  0.00000000E+00
  0.00000000E+00  0.00000000E+00  0.00000000E+00
  0.00000000E+00  0.00000000E+00  0.00000000E+00
  0.00000000E+00  0.00000000E+00  0.00000000E+00
  0.00000000E+00  0.00000000E+00  0.00000000E+00
  0.00000000E+00  0.00000000E+00  0.00000000E+00
  0.00000000E+00  0.00000000E+00  0.00000000E+00
  0.00000000E+00  0.00000000E+00  0.00000000E+00
  0.00000000E+00  0.00000000E+00  0.00000000E+00
  0.00000000E+00  0.00000000E+00  0.00000000E+00
  0.00000000E+00  0.00000000E+00  0.00000000E+00
  0.00000000E+00  0.00000000E+00  0.00000000E+00
  0.00000000E+00  0.00000000E+00  0.00000000E+00
  0.00000000E+00  0.00000000E+00  0.00000000E+00
  0.00000000E+00  0.00000000E+00  0.00000000E+00
  0.00000000E+00  0.00000000E+00  0.00000000E+00
  0.00000000E+00  0.00000000E+00  0.00000000E+00
