In42 Ga12 Cu12 Ag42 Se108               
   1.0000000000000000     
    16.5690709445116191   -0.0001483485209091   -7.5520245848261629
    -3.4297055218677328   16.2197265819054444   -7.5530902646064284
     0.0359371646343016    0.0460431477989009   22.0283911747644119
   In   Ga   Cu   Ag   Se
    42    12    12    42   108
Direct
  0.1709176764178295  0.4973432351730054  0.0031837046672933
  0.8289425944855964  0.4948377054576767  0.0025572821873965
  0.1708010066531216  0.8326209606432542  0.9983118639150916
  0.8328549879414808  0.8334144241667190  0.9997808021402079
  0.1700439602859518  0.1693486926410230  0.0032036801862318
  0.5002097827263938  0.1672241785120576  0.9992312895779847
  0.8309989427379918  0.1771471288955411  0.0040183288705364
  0.1653550985583081  0.4981779338293464  0.3280766626878915
  0.5001983129322980  0.4985897108494370  0.3287384513985714
  0.8291673176141572  0.5011401630714971  0.3302087758341159
  0.1665473651803424  0.8329233348013503  0.3320722217872714
  0.5027430157528698  0.8348346001679161  0.3309932020343069
  0.1705744453243909  0.1648115136121291  0.3322212935294786
  0.5045789654216577  0.1652259157284988  0.3350787279276233
  0.1669109129548687  0.4994051246773594  0.6661083331876938
  0.5015474689592239  0.4969338784343620  0.6680196561976146
  0.8322561765228969  0.4982580694965151  0.6686926529356185
  0.1678773997284821  0.8325373089176367  0.6659081397610365
  0.4982478884581099  0.8338905120235154  0.6677089422561622
  0.8362456794615909  0.8347329745837655  0.6705156800167344
  0.8277208972292414  0.1675720913675960  0.6621235328053174
  0.5845992260776782  0.4199258085787463  0.1666734377287256
  0.2557154664175414  0.7492786791964789  0.1664577939912917
  0.9112321356939148  0.7480681850730377  0.1676848310526680
  0.2568104261597668  0.0806258804969957  0.1656091649804523
  0.5806002569166395  0.0814835956477040  0.1670519326255402
  0.9143943509489105  0.0863013988723864  0.1702446663905093
  0.2556059688216124  0.4153926232609138  0.4988232593576853
  0.5827186470532624  0.4145847505818807  0.4978767617531901
  0.9091043803478414  0.4108360015504147  0.4963925118204529
  0.2524087974311655  0.7477992999563625  0.4974731256540963
  0.5810770737560205  0.7468290937449140  0.4967607171878896
  0.9124385046872021  0.7503774314964247  0.4970691773753444
  0.2534337895466336  0.0862972865374161  0.5023377857294307
  0.9121263572578329  0.0795548441709713  0.4951767647158007
  0.2527646708986282  0.4124816172999388  0.8334173156602631
  0.9183253463517289  0.4146924206717983  0.8375109888583339
  0.2579915074781098  0.7532478182583944  0.8358786195689305
  0.5790094054785655  0.7539283422969092  0.8380984153810829
  0.2551277076006144  0.0827970018603210  0.8344257814175293
  0.5804729080587094  0.0871193678882349  0.8309545664683142
  0.9158300560963397  0.0907564154813372  0.8357711421455249
  0.5048875346489083  0.5005950471368976  0.0039236411069012
  0.5010392149405476  0.8385895967484487  0.0055106728108498
  0.8217282258323948  0.8242061093036455  0.3276550673848675
  0.8272844700399844  0.1691020271345991  0.3338579145200882
  0.1664635647159898  0.1644952583499730  0.6660548170958336
  0.5019487594835113  0.1737070876089035  0.6659394001657688
  0.2524834030746206  0.4174607782496764  0.1645448661338236
  0.9122425464618331  0.4210136704499945  0.1667627947150550
  0.5817375859236549  0.7448780413128944  0.1653524364897478
  0.5829701360422206  0.0907405459354678  0.5009420580188149
  0.5816312720257457  0.4160035725489806  0.8363680554630477
  0.9177059686892548  0.7488006721892120  0.8344299243429489
  0.0043742694921747  0.3364959790342539  0.0073890064085234
  0.6672388902121540  0.3432547371518169  0.0050545340345707
  0.3388083049208959  0.9978689135754522  0.0004959707853942
  0.6683317439851777  0.3303804826993328  0.3341724831579143
  0.6609496676292963  0.6669048126093600  0.3243885750199951
  0.4228637029863762  0.5844369904067790  0.1660157443483712
  0.7431424273922005  0.5822399751321754  0.1659131056051706
  0.4170002311126098  0.9126491307262228  0.1597492027269141
  0.4174735994629941  0.5830457297624534  0.4993601031601926
  0.4206199190709938  0.2483304246948776  0.5015186146251978
  0.7457258478687194  0.2495020851204757  0.4946477696197675
  0.4172710451067090  0.9168261676238956  0.8401891235512338
  0.3387809217175715  0.3380205214343874  0.0046457347594355
  0.9977220523560035  0.6668714149237260  0.0005634922559992
  0.3458927416569395  0.6685761077532675  0.0068588701838834
  0.6611815765894349  0.6598138977454582  0.9999542527803982
  0.9974430688509273  0.9971258620689696  0.9976149972344359
  0.6605766692537074  0.0034520529347191  0.9987212710785940
  0.9935974151910258  0.3299278955719700  0.3296716159144140
  0.3362663897215015  0.3377878642068168  0.3372351552042332
  0.9900335245902596  0.6662063479121159  0.3286678790302346
  0.3370635128311648  0.6570770803499073  0.3289289555640380
  0.9922103646832738  0.0007309297386016  0.3335206863640181
  0.3436679515531083  0.9997099655220936  0.3358963008473594
  0.6688980072763755  0.0017089085829127  0.3345373153218105
  0.0006307207892391  0.3304448093951180  0.6620462173960746
  0.3370575769560062  0.3302238328069791  0.6667065667272638
  0.6633568994533547  0.3262499028337444  0.6645945351487228
  0.9997528012036270  0.6677284577916183  0.6692217299425138
  0.3389554747371051  0.6660898402491426  0.6651707033676004
  0.6652457977798889  0.6700152917636331  0.6682931264926069
  0.9994576604323484  0.0025120956905909  0.6662859052333800
  0.3310250188815473  0.0008633140405863  0.6690173344766279
  0.6620875304816707  0.0010959200113874  0.6629488242415391
  0.0842116916366464  0.5794524658188678  0.1643812011841987
  0.0844490433345229  0.9142490031274235  0.1669827826942054
  0.7458955382066108  0.9134953888803494  0.1704541435876905
  0.0827447746790142  0.2555154280899714  0.1625883658117715
  0.4219499680960013  0.2519835621218434  0.1679474871518494
  0.7446582093303959  0.2530154581680719  0.1705423236300945
  0.0849838038698820  0.5765111854426124  0.4987508252089654
  0.7429630253386108  0.5809469967357188  0.4931782020178090
  0.0803643699834993  0.9181643160648960  0.4948773093087198
  0.4286907891909166  0.9256696531197335  0.5051434719631942
  0.7443947083762623  0.9110106593801106  0.4942872164571099
  0.0813120008155153  0.2497036344148853  0.4996669993674132
  0.0851743927938458  0.5860894972631954  0.8357120282267658
  0.4195333620528388  0.5842752320720948  0.8388393199670787
  0.7494871744917475  0.5842798219375211  0.8356334485240069
  0.0886457610092748  0.9223049732053070  0.8391264444469755
  0.7533290065678671  0.9173249861554567  0.8344458274744042
  0.0795312111502824  0.2429551772868876  0.8309742096883355
  0.4254616224114756  0.2556409662705619  0.8330745339169354
  0.7479313158625729  0.2559191375980987  0.8383391544240055
  0.1271906734069503  0.4485597910179280  0.0843681681910624
  0.4607573819357214  0.4682713776679108  0.0845900026766131
  0.7858445933238656  0.4605753473859977  0.0918314578306081
  0.1284544523607209  0.7899948172029525  0.0821813061463601
  0.4689878727343739  0.7988673629791307  0.0900387557252031
  0.7868987631770210  0.7892032712488941  0.0810854428333485
  0.1268105817798428  0.1225312722428384  0.0840193428948339
  0.4526058013726484  0.1190142728938497  0.0784142979305145
  0.7890294830464981  0.1284642928916568  0.0851061375999294
  0.1263099699924055  0.4518787059688023  0.4119511426640656
  0.4594677111057308  0.4688313952743854  0.4206345751020706
  0.7819100719542433  0.4497341661117531  0.4083228558166212
  0.1229458612612007  0.7876464950972988  0.4135845408268608
  0.4567026603544448  0.7922838547360982  0.4133782925737322
  0.7806466062846411  0.7829723849360590  0.4049106291010247
  0.1245533706324196  0.1229421392169670  0.4148645264719519
  0.4641007550938099  0.1328236697660046  0.4259880178506563
  0.7895702337266144  0.1347596076087498  0.4167420061251903
  0.1266893232315880  0.4577751745176286  0.7512564771995685
  0.4647779378138495  0.4568680470412119  0.7574895792256271
  0.7897894486345223  0.4544929056719340  0.7521168560432656
  0.1279865031462109  0.7926797217009849  0.7524679034190740
  0.4546941472078743  0.8021603777053130  0.7574714909015441
  0.7997167101119089  0.7895204297634848  0.7563611117408584
  0.1299699097071851  0.1245184336878964  0.7463429341721977
  0.4586505058723418  0.1280096934370931  0.7395621391223699
  0.7878617424449672  0.1297474398497300  0.7498068441429666
  0.3022102174492289  0.6204473174308873  0.0885928137832934
  0.6223266095622080  0.6218631922692524  0.0885611990550714
  0.9538881722987540  0.6227448278122125  0.0832320331906971
  0.3037651239694199  0.9560276839956146  0.0801463283478157
  0.6204780637647005  0.9540686879839981  0.0812448538652291
  0.9576020263426841  0.9602498943214144  0.0864384043678399
  0.2940306944602469  0.2990042134160120  0.0894231546110333
  0.6259510535162960  0.2959849806345005  0.0783532892766132
  0.9557336184817515  0.3068883596060985  0.0857631739737101
  0.2991075185488015  0.6191792510102516  0.4184975876651507
  0.6245094332004868  0.6281986177866870  0.4049722644712546
  0.9580781071145452  0.6234155514048965  0.4180004989030337
  0.2935759610282034  0.9584755525817030  0.4173521089395749
  0.6212092672732794  0.9694949794087364  0.4227841307428761
  0.9404879254112544  0.9434617913569951  0.4058534094181994
  0.3032073675812015  0.2863391279069631  0.4217202239160116
  0.6332670377346830  0.2918124769326340  0.4146984828991549
  0.9488478740854873  0.2829892340851572  0.4104899927565171
  0.2953502141754925  0.6239282310596437  0.7495111043432132
  0.6223382621602411  0.6282869489209162  0.7534351242484121
  0.9557813561956294  0.6294734862213005  0.7553508147781258
  0.3015178821165136  0.9534888939784807  0.7568830524299912
  0.6256523507129259  0.9596943948101497  0.7501652707269528
  0.9605638066124556  0.9637766335387994  0.7541885937438124
  0.2854150615100792  0.2819470212367250  0.7434509941435579
  0.6169065695021345  0.2954308838922373  0.7533844382768962
  0.9568281604426829  0.2902520938391717  0.7479066742908955
  0.2149088366848559  0.3781918875098853  0.2444506936348105
  0.5537978772752439  0.3724714794459487  0.2548712504372119
  0.8740995015291873  0.3781509009523276  0.2442054820026840
  0.2105641010051116  0.7070031091385616  0.2491685739641269
  0.5413550481135445  0.7021714373320691  0.2439233867425727
  0.8575527922325321  0.7039129725439608  0.2459811763502060
  0.2136206321349832  0.0381414465397185  0.2492362423838657
  0.5333448256386149  0.0312949656831165  0.2447061403516813
  0.8651625501759881  0.0495832651374428  0.2546735534369589
  0.2107000952769624  0.3742335719743366  0.5824054397265002
  0.5353372122344737  0.3669636256547264  0.5776606653241387
  0.8650733791382308  0.3656560079363729  0.5788099706511574
  0.2088870762000496  0.7057488820063540  0.5810778268274461
  0.5331708931937982  0.7018440929115854  0.5783192467090714
  0.8724060528336040  0.7071943687862401  0.5818042886991108
  0.2055264796478724  0.0470386405075374  0.5862597365944424
  0.5464467269808608  0.0601035545009694  0.5859835292451336
  0.8701001669820556  0.0394602649375742  0.5801787589077776
  0.2073016068312228  0.3701879945226167  0.9151829714073472
  0.5511219535130820  0.3842960923794863  0.9255990812027122
  0.8849532355318033  0.3724788157391075  0.9269579011869524
  0.2170806646685079  0.7067852643307120  0.9186150815625851
  0.5382144515751222  0.7185801361105177  0.9266532628219011
  0.8764071224563281  0.7103366490610270  0.9126455010245706
  0.2211552074951086  0.0430066090143555  0.9254003738588068
  0.5312465907394213  0.0362496810018698  0.9083119795781087
  0.8734879811688856  0.0500124158366617  0.9204368087245456
  0.0325209167460656  0.5373059127245767  0.2450662582546812
  0.3739540083540476  0.5342776590787324  0.2350589205823042
  0.7063026100537400  0.5522033691981747  0.2495560567364876
  0.0374687383209604  0.8742388550567028  0.2500748684949130
  0.3804900715258981  0.8771769457338934  0.2414678527428791
  0.7017193812998812  0.8629847000506032  0.2501681531215709
  0.0444531775622679  0.2085040661343882  0.2483070557023694
  0.3793809842530251  0.2101804568891765  0.2528407466860614
  0.7071669455778817  0.2113344823314591  0.2577080394893372
  0.0363973815648251  0.5373729557510956  0.5816578574512050
  0.3816707353387869  0.5427253222709183  0.5787384373541400
  0.7076459882331321  0.5420885554639057  0.5837546236521405
  0.0408968069845699  0.8750508907034558  0.5816803380192255
  0.3753230337581428  0.8773941554058098  0.5817603424054454
  0.7074418670201297  0.8732461113830752  0.5841329007734402
  0.0464192082141608  0.2002326667772962  0.5847393581940921
  0.3850529712421178  0.2098684370228341  0.5816902728598876
  0.7033206496520421  0.2065307768420226  0.5704263567474612
  0.0447519506898715  0.5409525582356451  0.9201340253128834
  0.3846390258289247  0.5355458521582150  0.9232040845561755
  0.7013054009098241  0.5321650065313008  0.9128946350024165
  0.0363986136531267  0.8669826528945634  0.9124329929801931
  0.3847040542746356  0.8833147472451941  0.9248446495986755
  0.7071154333439083  0.8772044413636948  0.9177630067488565
  0.0416540962635779  0.2187347815487470  0.9262607343140061
  0.3774509652828968  0.2123778314925673  0.9155123758095414
  0.7007194601007640  0.2212378911939652  0.9245936518851323

  0.00000000E+00  0.00000000E+00  0.00000000E+00
  0.00000000E+00  0.00000000E+00  0.00000000E+00
  0.00000000E+00  0.00000000E+00  0.00000000E+00
  0.00000000E+00  0.00000000E+00  0.00000000E+00
  0.00000000E+00  0.00000000E+00  0.00000000E+00
  0.00000000E+00  0.00000000E+00  0.00000000E+00
  0.00000000E+00  0.00000000E+00  0.00000000E+00
  0.00000000E+00  0.00000000E+00  0.00000000E+00
  0.00000000E+00  0.00000000E+00  0.00000000E+00
  0.00000000E+00  0.00000000E+00  0.00000000E+00
  0.00000000E+00  0.00000000E+00  0.00000000E+00
  0.00000000E+00  0.00000000E+00  0.00000000E+00
  0.00000000E+00  0.00000000E+00  0.00000000E+00
  0.00000000E+00  0.00000000E+00  0.00000000E+00
  0.00000000E+00  0.00000000E+00  0.00000000E+00
  0.00000000E+00  0.00000000E+00  0.00000000E+00
  0.00000000E+00  0.00000000E+00  0.00000000E+00
  0.00000000E+00  0.00000000E+00  0.00000000E+00
  0.00000000E+00  0.00000000E+00  0.00000000E+00
  0.00000000E+00  0.00000000E+00  0.00000000E+00
  0.00000000E+00  0.00000000E+00  0.00000000E+00
  0.00000000E+00  0.00000000E+00  0.00000000E+00
  0.00000000E+00  0.00000000E+00  0.00000000E+00
  0.00000000E+00  0.00000000E+00  0.00000000E+00
  0.00000000E+00  0.00000000E+00  0.00000000E+00
  0.00000000E+00  0.00000000E+00  0.00000000E+00
  0.00000000E+00  0.00000000E+00  0.00000000E+00
  0.00000000E+00  0.00000000E+00  0.00000000E+00
  0.00000000E+00  0.00000000E+00  0.00000000E+00
  0.00000000E+00  0.00000000E+00  0.00000000E+00
  0.00000000E+00  0.00000000E+00  0.00000000E+00
  0.00000000E+00  0.00000000E+00  0.00000000E+00
  0.00000000E+00  0.00000000E+00  0.00000000E+00
  0.00000000E+00  0.00000000E+00  0.00000000E+00
  0.00000000E+00  0.00000000E+00  0.00000000E+00
  0.00000000E+00  0.00000000E+00  0.00000000E+00
  0.00000000E+00  0.00000000E+00  0.00000000E+00
  0.00000000E+00  0.00000000E+00  0.00000000E+00
  0.00000000E+00  0.00000000E+00  0.00000000E+00
  0.00000000E+00  0.00000000E+00  0.00000000E+00
  0.00000000E+00  0.00000000E+00  0.00000000E+00
  0.00000000E+00  0.00000000E+00  0.00000000E+00
  0.00000000E+00  0.00000000E+00  0.00000000E+00
  0.00000000E+00  0.00000000E+00  0.00000000E+00
  0.00000000E+00  0.00000000E+00  0.00000000E+00
  0.00000000E+00  0.00000000E+00  0.00000000E+00
  0.00000000E+00  0.00000000E+00  0.00000000E+00
  0.00000000E+00  0.00000000E+00  0.00000000E+00
  0.00000000E+00  0.00000000E+00  0.00000000E+00
  0.00000000E+00  0.00000000E+00  0.00000000E+00
  0.00000000E+00  0.00000000E+00  0.00000000E+00
  0.00000000E+00  0.00000000E+00  0.00000000E+00
  0.00000000E+00  0.00000000E+00  0.00000000E+00
  0.00000000E+00  0.00000000E+00  0.00000000E+00
  0.00000000E+00  0.00000000E+00  0.00000000E+00
  0.00000000E+00  0.00000000E+00  0.00000000E+00
  0.00000000E+00  0.00000000E+00  0.00000000E+00
  0.00000000E+00  0.00000000E+00  0.00000000E+00
  0.00000000E+00  0.00000000E+00  0.00000000E+00
  0.00000000E+00  0.00000000E+00  0.00000000E+00
  0.00000000E+00  0.00000000E+00  0.00000000E+00
  0.00000000E+00  0.00000000E+00  0.00000000E+00
  0.00000000E+00  0.00000000E+00  0.00000000E+00
  0.00000000E+00  0.00000000E+00  0.00000000E+00
  0.00000000E+00  0.00000000E+00  0.00000000E+00
  0.00000000E+00  0.00000000E+00  0.00000000E+00
  0.00000000E+00  0.00000000E+00  0.00000000E+00
  0.00000000E+00  0.00000000E+00  0.00000000E+00
  0.00000000E+00  0.00000000E+00  0.00000000E+00
  0.00000000E+00  0.00000000E+00  0.00000000E+00
  0.00000000E+00  0.00000000E+00  0.00000000E+00
  0.00000000E+00  0.00000000E+00  0.00000000E+00
  0.00000000E+00  0.00000000E+00  0.00000000E+00
  0.00000000E+00  0.00000000E+00  0.00000000E+00
  0.00000000E+00  0.00000000E+00  0.00000000E+00
  0.00000000E+00  0.00000000E+00  0.00000000E+00
  0.00000000E+00  0.00000000E+00  0.00000000E+00
  0.00000000E+00  0.00000000E+00  0.00000000E+00
  0.00000000E+00  0.00000000E+00  0.00000000E+00
  0.00000000E+00  0.00000000E+00  0.00000000E+00
  0.00000000E+00  0.00000000E+00  0.00000000E+00
  0.00000000E+00  0.00000000E+00  0.00000000E+00
  0.00000000E+00  0.00000000E+00  0.00000000E+00
  0.00000000E+00  0.00000000E+00  0.00000000E+00
  0.00000000E+00  0.00000000E+00  0.00000000E+00
  0.00000000E+00  0.00000000E+00  0.00000000E+00
  0.00000000E+00  0.00000000E+00  0.00000000E+00
  0.00000000E+00  0.00000000E+00  0.00000000E+00
  0.00000000E+00  0.00000000E+00  0.00000000E+00
  0.00000000E+00  0.00000000E+00  0.00000000E+00
  0.00000000E+00  0.00000000E+00  0.00000000E+00
  0.00000000E+00  0.00000000E+00  0.00000000E+00
  0.00000000E+00  0.00000000E+00  0.00000000E+00
  0.00000000E+00  0.00000000E+00  0.00000000E+00
  0.00000000E+00  0.00000000E+00  0.00000000E+00
  0.00000000E+00  0.00000000E+00  0.00000000E+00
  0.00000000E+00  0.00000000E+00  0.00000000E+00
  0.00000000E+00  0.00000000E+00  0.00000000E+00
  0.00000000E+00  0.00000000E+00  0.00000000E+00
  0.00000000E+00  0.00000000E+00  0.00000000E+00
  0.00000000E+00  0.00000000E+00  0.00000000E+00
  0.00000000E+00  0.00000000E+00  0.00000000E+00
  0.00000000E+00  0.00000000E+00  0.00000000E+00
  0.00000000E+00  0.00000000E+00  0.00000000E+00
  0.00000000E+00  0.00000000E+00  0.00000000E+00
  0.00000000E+00  0.00000000E+00  0.00000000E+00
  0.00000000E+00  0.00000000E+00  0.00000000E+00
  0.00000000E+00  0.00000000E+00  0.00000000E+00
  0.00000000E+00  0.00000000E+00  0.00000000E+00
  0.00000000E+00  0.00000000E+00  0.00000000E+00
  0.00000000E+00  0.00000000E+00  0.00000000E+00
  0.00000000E+00  0.00000000E+00  0.00000000E+00
  0.00000000E+00  0.00000000E+00  0.00000000E+00
  0.00000000E+00  0.00000000E+00  0.00000000E+00
  0.00000000E+00  0.00000000E+00  0.00000000E+00
  0.00000000E+00  0.00000000E+00  0.00000000E+00
  0.00000000E+00  0.00000000E+00  0.00000000E+00
  0.00000000E+00  0.00000000E+00  0.00000000E+00
  0.00000000E+00  0.00000000E+00  0.00000000E+00
  0.00000000E+00  0.00000000E+00  0.00000000E+00
  0.00000000E+00  0.00000000E+00  0.00000000E+00
  0.00000000E+00  0.00000000E+00  0.00000000E+00
  0.00000000E+00  0.00000000E+00  0.00000000E+00
  0.00000000E+00  0.00000000E+00  0.00000000E+00
  0.00000000E+00  0.00000000E+00  0.00000000E+00
  0.00000000E+00  0.00000000E+00  0.00000000E+00
  0.00000000E+00  0.00000000E+00  0.00000000E+00
  0.00000000E+00  0.00000000E+00  0.00000000E+00
  0.00000000E+00  0.00000000E+00  0.00000000E+00
  0.00000000E+00  0.00000000E+00  0.00000000E+00
  0.00000000E+00  0.00000000E+00  0.00000000E+00
  0.00000000E+00  0.00000000E+00  0.00000000E+00
  0.00000000E+00  0.00000000E+00  0.00000000E+00
  0.00000000E+00  0.00000000E+00  0.00000000E+00
  0.00000000E+00  0.00000000E+00  0.00000000E+00
  0.00000000E+00  0.00000000E+00  0.00000000E+00
  0.00000000E+00  0.00000000E+00  0.00000000E+00
  0.00000000E+00  0.00000000E+00  0.00000000E+00
  0.00000000E+00  0.00000000E+00  0.00000000E+00
  0.00000000E+00  0.00000000E+00  0.00000000E+00
  0.00000000E+00  0.00000000E+00  0.00000000E+00
  0.00000000E+00  0.00000000E+00  0.00000000E+00
  0.00000000E+00  0.00000000E+00  0.00000000E+00
  0.00000000E+00  0.00000000E+00  0.00000000E+00
  0.00000000E+00  0.00000000E+00  0.00000000E+00
  0.00000000E+00  0.00000000E+00  0.00000000E+00
  0.00000000E+00  0.00000000E+00  0.00000000E+00
  0.00000000E+00  0.00000000E+00  0.00000000E+00
  0.00000000E+00  0.00000000E+00  0.00000000E+00
  0.00000000E+00  0.00000000E+00  0.00000000E+00
  0.00000000E+00  0.00000000E+00  0.00000000E+00
  0.00000000E+00  0.00000000E+00  0.00000000E+00
  0.00000000E+00  0.00000000E+00  0.00000000E+00
  0.00000000E+00  0.00000000E+00  0.00000000E+00
  0.00000000E+00  0.00000000E+00  0.00000000E+00
  0.00000000E+00  0.00000000E+00  0.00000000E+00
  0.00000000E+00  0.00000000E+00  0.00000000E+00
  0.00000000E+00  0.00000000E+00  0.00000000E+00
  0.00000000E+00  0.00000000E+00  0.00000000E+00
  0.00000000E+00  0.00000000E+00  0.00000000E+00
  0.00000000E+00  0.00000000E+00  0.00000000E+00
  0.00000000E+00  0.00000000E+00  0.00000000E+00
  0.00000000E+00  0.00000000E+00  0.00000000E+00
  0.00000000E+00  0.00000000E+00  0.00000000E+00
  0.00000000E+00  0.00000000E+00  0.00000000E+00
  0.00000000E+00  0.00000000E+00  0.00000000E+00
  0.00000000E+00  0.00000000E+00  0.00000000E+00
  0.00000000E+00  0.00000000E+00  0.00000000E+00
  0.00000000E+00  0.00000000E+00  0.00000000E+00
  0.00000000E+00  0.00000000E+00  0.00000000E+00
  0.00000000E+00  0.00000000E+00  0.00000000E+00
  0.00000000E+00  0.00000000E+00  0.00000000E+00
  0.00000000E+00  0.00000000E+00  0.00000000E+00
  0.00000000E+00  0.00000000E+00  0.00000000E+00
  0.00000000E+00  0.00000000E+00  0.00000000E+00
  0.00000000E+00  0.00000000E+00  0.00000000E+00
  0.00000000E+00  0.00000000E+00  0.00000000E+00
  0.00000000E+00  0.00000000E+00  0.00000000E+00
  0.00000000E+00  0.00000000E+00  0.00000000E+00
  0.00000000E+00  0.00000000E+00  0.00000000E+00
  0.00000000E+00  0.00000000E+00  0.00000000E+00
  0.00000000E+00  0.00000000E+00  0.00000000E+00
  0.00000000E+00  0.00000000E+00  0.00000000E+00
  0.00000000E+00  0.00000000E+00  0.00000000E+00
  0.00000000E+00  0.00000000E+00  0.00000000E+00
  0.00000000E+00  0.00000000E+00  0.00000000E+00
  0.00000000E+00  0.00000000E+00  0.00000000E+00
  0.00000000E+00  0.00000000E+00  0.00000000E+00
  0.00000000E+00  0.00000000E+00  0.00000000E+00
  0.00000000E+00  0.00000000E+00  0.00000000E+00
  0.00000000E+00  0.00000000E+00  0.00000000E+00
  0.00000000E+00  0.00000000E+00  0.00000000E+00
  0.00000000E+00  0.00000000E+00  0.00000000E+00
  0.00000000E+00  0.00000000E+00  0.00000000E+00
  0.00000000E+00  0.00000000E+00  0.00000000E+00
  0.00000000E+00  0.00000000E+00  0.00000000E+00
  0.00000000E+00  0.00000000E+00  0.00000000E+00
  0.00000000E+00  0.00000000E+00  0.00000000E+00
  0.00000000E+00  0.00000000E+00  0.00000000E+00
  0.00000000E+00  0.00000000E+00  0.00000000E+00
  0.00000000E+00  0.00000000E+00  0.00000000E+00
  0.00000000E+00  0.00000000E+00  0.00000000E+00
  0.00000000E+00  0.00000000E+00  0.00000000E+00
  0.00000000E+00  0.00000000E+00  0.00000000E+00
  0.00000000E+00  0.00000000E+00  0.00000000E+00
  0.00000000E+00  0.00000000E+00  0.00000000E+00
  0.00000000E+00  0.00000000E+00  0.00000000E+00
  0.00000000E+00  0.00000000E+00  0.00000000E+00
  0.00000000E+00  0.00000000E+00  0.00000000E+00
  0.00000000E+00  0.00000000E+00  0.00000000E+00
  0.00000000E+00  0.00000000E+00  0.00000000E+00
  0.00000000E+00  0.00000000E+00  0.00000000E+00
  0.00000000E+00  0.00000000E+00  0.00000000E+00
  0.00000000E+00  0.00000000E+00  0.00000000E+00
  0.00000000E+00  0.00000000E+00  0.00000000E+00
  0.00000000E+00  0.00000000E+00  0.00000000E+00
