In54 Cu30 Ag24 Se108                    
   1.0000000000000000     
    16.4211701321532502   -0.0003111645656064   -7.3651199514640711
    -3.3056736847485344   16.0816397858447466   -7.3747659012155307
     0.0321340535088371    0.0403090731306763   22.0688473501588156
   In   Cu   Ag   Se
    54    30    24   108
Direct
  0.1656045158529480  0.5067876951151504  0.0007629733449335
  0.4990497121765856  0.5002527805018318  0.9989779591852823
  0.8349895180155187  0.5029561738586636  0.9989025754012175
  0.1631643587611507  0.8295017676486438  0.9992606281382024
  0.5034840205613946  0.8335582816926816  0.0019889009732026
  0.8350985353213645  0.8319222957672636  0.0014440663505084
  0.1667377443380218  0.1635459517469187  0.0008141785621305
  0.5025052779293659  0.1650523293048352  0.9991424410531451
  0.8318610640005701  0.1654612179032853  0.0020420300252013
  0.1686437259450955  0.5065596811206845  0.3343480437340602
  0.5011727197338800  0.5042445298142582  0.3344916850228472
  0.8322210486338406  0.5009244785329372  0.3334945887138758
  0.1666762386084955  0.8360679219752143  0.3338565115986754
  0.4951514286757899  0.8330015658575221  0.3332719346961639
  0.8373653815621083  0.8354374646180815  0.3321528260489828
  0.1667699582954612  0.1573773746535636  0.3326447750377071
  0.5000659244636481  0.1648324763392921  0.3344774677255700
  0.8322572846644221  0.1626954321150862  0.3318272517422045
  0.1641194610480596  0.4961879917604364  0.6675149883419635
  0.5010104687132326  0.4967329895505230  0.6642926800636531
  0.8349452316112647  0.4974644750982904  0.6687200275643548
  0.1672161672981360  0.8391438150338928  0.6652557810993258
  0.4985263943266176  0.8367099558116564  0.6644464051835115
  0.8333235545906348  0.8361022337209576  0.6655892097549554
  0.1692786323142670  0.1650433311015007  0.6671262107687923
  0.4977283198337901  0.1650340072284777  0.6670909272934864
  0.8312258768722458  0.1658767501142364  0.6648268823642098
  0.2478983091309814  0.4228379718034176  0.1679216960340213
  0.5875259681877623  0.4165731873751781  0.1707523990421791
  0.9167043911747115  0.4216667339647913  0.1676625473623048
  0.2446173913732252  0.7509678496531222  0.1680137670185786
  0.5842563163322652  0.7489406793754867  0.1643360200232351
  0.9198144147497089  0.7512102232724018  0.1657054862170853
  0.2494868401913735  0.0763874516130159  0.1659743379371790
  0.5853992475944736  0.0840221909153058  0.1654543191177069
  0.9156826301337162  0.0775029158384015  0.1670418590502933
  0.2538068319068287  0.4138851656095142  0.5005609235908537
  0.5840077113776658  0.4128162743075947  0.4983180631128334
  0.9125785818477397  0.4090630737941581  0.4987520829838346
  0.2510454891748140  0.7568442205210246  0.4995024398990324
  0.5781411767292468  0.7533608541440273  0.4992224035575106
  0.9178698316380363  0.7538085737399740  0.4963131362614916
  0.2517131860614299  0.0804930418228693  0.4997984436125691
  0.5779283168018736  0.0830324858424163  0.4992521043192610
  0.9211698013867249  0.0865263336180675  0.5028042995229569
  0.2478676925049044  0.4162040271072343  0.8321970693093377
  0.5850415967824034  0.4167653870528341  0.8334713903863147
  0.9144526271682878  0.4207154871862855  0.8335602592517048
  0.2487830961890580  0.7493689175340918  0.8342850374361319
  0.5881483287575477  0.7510275673730646  0.8356909497067022
  0.9162891189579838  0.7452024586510930  0.8344287317605961
  0.2542098408576337  0.0835024219549325  0.8329472022459683
  0.5819611708735479  0.0838133990555789  0.8320793802045259
  0.9135142968960750  0.0830711012837000  0.8331357024244923
  0.9994944351233244  0.6679821273777478  0.0005237360333581
  0.3278619310486448  0.6680186615521961  0.9966133593903024
  0.6700255822308989  0.6692815061771711  0.9999169460118438
  0.9993906502967462  0.9955037962689204  0.0022920158763569
  0.3336915082655167  0.9969912795587703  0.9991115642360100
  0.6718749157812525  0.0010392879688723  0.0066290115302721
  0.6683408247618488  0.3288332310922328  0.3332599672191208
  0.0054771017213824  0.6707161805695847  0.3341878208529678
  0.3310050069570920  0.6708691972248815  0.3357526450295367
  0.6668634527554644  0.6711802695258910  0.3336718789229707
  0.9971220512484820  0.9938010329565614  0.3303869942615663
  0.3317591893369354  0.0009198118195926  0.3361983922153371
  0.9981442908968461  0.3358726208823839  0.6674266306962977
  0.3353823003066836  0.3281336399080530  0.6671277358702739
  0.0026080998933722  0.9993016504091159  0.6643738970026902
  0.3323811665445007  0.0026175028450979  0.6635835356895043
  0.6639475961947028  0.0060445066789612  0.6665429343854754
  0.0822294992221586  0.5897119336467398  0.1701240701302638
  0.0828412216444931  0.9155247417686567  0.1662285410861344
  0.7524139743197082  0.9147760523922912  0.1629642882268882
  0.7496745402589653  0.2453911724625542  0.1673454604292104
  0.4136839966457160  0.5852003953514071  0.4963800246421357
  0.0836789801645565  0.9188401793660503  0.4991409169776517
  0.4169841394947014  0.9181979459207597  0.5004736632562938
  0.4145137961810548  0.2443063224222968  0.5001112621177981
  0.7490985058803403  0.2513031221251651  0.4986174130888301
  0.0839717706841725  0.5798783856643794  0.8355546013657857
  0.7518961180765658  0.5853838003808463  0.8393836690249756
  0.4150178661407153  0.2490248091567082  0.8275660597180376
  0.7498189766667664  0.2461444841588971  0.8307508728566830
  0.0000795868490258  0.3391744622509094  0.0007125229655500
  0.3352808612077709  0.3298112280194090  0.9982009917146613
  0.6636337830742463  0.3299159361433155  0.9977949229175564
  0.9948288155111840  0.3355337109111574  0.3296760068573477
  0.3354058948442287  0.3370136226591143  0.3393852354856719
  0.6722761769031393  0.9973024869650047  0.3332122299745350
  0.6662681947965794  0.3305306486092974  0.6659240048327888
  0.9999426489334624  0.6669874078071416  0.6681941812290830
  0.3348454352332197  0.6628203915462834  0.6645727241405126
  0.6610688436525720  0.6658414586187789  0.6659653109044115
  0.4154341112261193  0.5883964735989125  0.1684943248046338
  0.7506752949640827  0.5896652039218679  0.1706899033482472
  0.4134286055082583  0.9123662693745942  0.1649978251059281
  0.0839063702643728  0.2446962689130245  0.1653394027871329
  0.4203832727515504  0.2484352166901758  0.1666149439350022
  0.0810947819264101  0.5842674165340824  0.4984428162928438
  0.7464337988327188  0.5820633393980756  0.4948858171310775
  0.7512047942322866  0.9168584787198100  0.5032020387870730
  0.0903532929422681  0.2474103377779144  0.5030608719358582
  0.4204790021424571  0.5793336567767824  0.8349585241417117
  0.0811007086256126  0.9230101960250536  0.8368619741034564
  0.4187208507950402  0.9208514950420223  0.8370505877173358
  0.7496123477357415  0.9198914240013281  0.8343154980103833
  0.0783480180369693  0.2481947779088003  0.8277442786256799
  0.1209108344684893  0.4723996567747619  0.0892864049254456
  0.4604464989146209  0.4594746331987452  0.0865415913616019
  0.7888149844078640  0.4611312320965339  0.0816908409347263
  0.1123186109251364  0.7915425508726059  0.0835882592482662
  0.4498150218453389  0.7822887069844455  0.0770530022478795
  0.7845446654921844  0.7904667513544794  0.0836186070349711
  0.1177036615688394  0.1125926333538132  0.0784086520891734
  0.4509278060733166  0.1152002316757788  0.0760904842550971
  0.7843310604462559  0.1241691205410902  0.0869183886716627
  0.1268720506421346  0.4574957647899112  0.4161287995183613
  0.4588427311048662  0.4681273444631984  0.4228075905419431
  0.7842436165710325  0.4488305179668473  0.4114591374014722
  0.1158690033201282  0.7957142819090990  0.4170630289076200
  0.4446439229620154  0.7936619867142909  0.4166311931841804
  0.7843279466601345  0.7884148651754259  0.4098743616148255
  0.1162408416381240  0.1114267879463213  0.4115931507580086
  0.4457638258292818  0.1237717614618958  0.4159493133499623
  0.7907327033980707  0.1322650445034981  0.4231964175135161
  0.1129706104273112  0.4569703324547518  0.7506702462991015
  0.4514793317594723  0.4478314656126230  0.7431107278074833
  0.7847447343206397  0.4668915437027152  0.7553986426618451
  0.1251586259565585  0.7964171511585789  0.7504608563277486
  0.4604948149218941  0.7927038693709179  0.7508158287182312
  0.7918996157807712  0.7905114055590516  0.7495854579372860
  0.1199994110663454  0.1171751878513163  0.7461612877405130
  0.4467946471775264  0.1242073037970428  0.7492798845140598
  0.7811008149859475  0.1251361598325857  0.7485095955681516
  0.2941342170675156  0.6335145830682265  0.0802214209200471
  0.6285054211770955  0.6263040446319934  0.0757469304547769
  0.9696688947560475  0.6260779074091474  0.0829460383201877
  0.2922983672565849  0.9556360038198619  0.0751601446395398
  0.6369618079236332  0.9580410942938471  0.0853710788167277
  0.9681476136681013  0.9559911282954801  0.0844889537292559
  0.2912085931860418  0.2939693596723174  0.0853945561570484
  0.6344563790065294  0.2884478108034401  0.0898816776214773
  0.9587660436583505  0.2930710152139540  0.0847938969838680
  0.3012390804322109  0.6301887294633772  0.4183065368357575
  0.6269218746723269  0.6340768668696342  0.4124249358127727
  0.9610973513907339  0.6279328602497714  0.4089374961359411
  0.3027842046788791  0.9577256553670495  0.4177086326687132
  0.6233572554135307  0.9579952943740082  0.4162928756166053
  0.9695922206340626  0.9610174410952013  0.4180720608779396
  0.2975035868517182  0.2825327622340765  0.4204946028592076
  0.6341911150373605  0.2888755129135774  0.4149237740027658
  0.9614068119087804  0.2875038424654832  0.4160631735488209
  0.2920806204669546  0.6228657121043497  0.7501896023239354
  0.6341038222028246  0.6204970814901429  0.7565454741294459
  0.9679806779186677  0.6203630346811906  0.7558532765144648
  0.2986742602660186  0.9619609210232625  0.7442375723353507
  0.6277704471859309  0.9625580557602831  0.7442945947700750
  0.9607704864927484  0.9637596409782958  0.7439791216315896
  0.3003094458132125  0.2917605076480143  0.7496117818130585
  0.6319553084825529  0.2865247094390213  0.7544556518122931
  0.9565499676923253  0.2965711798218749  0.7445693339549848
  0.2073973359107129  0.3757001991869089  0.2506457792880781
  0.5501454885812080  0.3730925506257776  0.2583030840127023
  0.8636386679010144  0.3686271319409897  0.2420322062640849
  0.2070010392934591  0.7005097841187720  0.2525299637018463
  0.5495261437471726  0.7094886109568392  0.2549842683429304
  0.8869118808589320  0.7076297487877525  0.2547850247367620
  0.2084685238297439  0.0259015407853838  0.2487350746891224
  0.5424102643263566  0.0387171374404005  0.2486123634351216
  0.8743227116855579  0.0280358212410476  0.2502234063392095
  0.2197174479803792  0.3724673010735984  0.5910007408423752
  0.5330148911531225  0.3619574603018094  0.5751723831795061
  0.8730543087901026  0.3629639877513711  0.5842159101607720
  0.2095135844447285  0.7107280450428632  0.5825307590229372
  0.5317550212417643  0.7018660166794817  0.5776885151137918
  0.8753240705058190  0.7091773598242099  0.5801218853178298
  0.2080428201617366  0.0316630218774137  0.5817657843669650
  0.5394167837077362  0.0329553525834640  0.5830495698629719
  0.8837765815007046  0.0391677497110834  0.5882611251113943
  0.2059040737931568  0.3753188570966230  0.9177803524776920
  0.5326274158294169  0.3670682413973694  0.9102116124167736
  0.8652282652884864  0.3672579480224982  0.9093720936289600
  0.2041988375102690  0.6970570961238423  0.9146870044465913
  0.5498088997883528  0.7052914510555865  0.9211009336274572
  0.8744412772959080  0.6978362431754732  0.9186096938124706
  0.2195422769537387  0.0398536980339870  0.9216310596007560
  0.5555198765732854  0.0388051664990030  0.9237239395042351
  0.8846267309324531  0.0391460898158940  0.9247201809873502
  0.0422049059813148  0.5547380245457347  0.2511472796688778
  0.3723202619900192  0.5538673748287835  0.2569366592219353
  0.7057308058034550  0.5524038384711147  0.2566010683062956
  0.0425662655467320  0.8851432574102773  0.2489902208666024
  0.3686607281969643  0.8829361273935632  0.2547359211883418
  0.7128516471343218  0.8764398542106875  0.2418909087961651
  0.0419519661443175  0.2048992146667032  0.2515485484919182
  0.3729160942256513  0.2074621072774363  0.2503174550905811
  0.7096339797195057  0.2165016363249919  0.2504745312318377
  0.0384451305795892  0.5375252161294100  0.5807366835623000
  0.3797287310903741  0.5429994979216417  0.5759985454815038
  0.7097112311372697  0.5410391463097923  0.5834351850438395
  0.0416744670581650  0.8870066204062823  0.5807359438225603
  0.3751643120491082  0.8894896157087118  0.5831920019078893
  0.7024845257904246  0.8849762279782354  0.5899230956141892
  0.0432096234724142  0.2194015367244972  0.5928300002357290
  0.3743979992891866  0.2151172299179152  0.5833395679454867
  0.7079457594752583  0.2084073945510454  0.5748803965873890
  0.0393548607307039  0.5535761302372606  0.9176215381290689
  0.3697810793517888  0.5493487692669063  0.9216615228574767
  0.7078595408305972  0.5523349370119917  0.9181564157489177
  0.0366381098060202  0.8795611611134575  0.9205260937963615
  0.3740496229644990  0.8801535792708890  0.9218877541052848
  0.7097863883658491  0.8847584663231345  0.9244449325049757
  0.0416167445460758  0.2091647618369521  0.9170260178614527
  0.3816574934851360  0.2111391553790440  0.9101698388402681
  0.7117924890840683  0.2094949430838113  0.9109583653123892

  0.00000000E+00  0.00000000E+00  0.00000000E+00
  0.00000000E+00  0.00000000E+00  0.00000000E+00
  0.00000000E+00  0.00000000E+00  0.00000000E+00
  0.00000000E+00  0.00000000E+00  0.00000000E+00
  0.00000000E+00  0.00000000E+00  0.00000000E+00
  0.00000000E+00  0.00000000E+00  0.00000000E+00
  0.00000000E+00  0.00000000E+00  0.00000000E+00
  0.00000000E+00  0.00000000E+00  0.00000000E+00
  0.00000000E+00  0.00000000E+00  0.00000000E+00
  0.00000000E+00  0.00000000E+00  0.00000000E+00
  0.00000000E+00  0.00000000E+00  0.00000000E+00
  0.00000000E+00  0.00000000E+00  0.00000000E+00
  0.00000000E+00  0.00000000E+00  0.00000000E+00
  0.00000000E+00  0.00000000E+00  0.00000000E+00
  0.00000000E+00  0.00000000E+00  0.00000000E+00
  0.00000000E+00  0.00000000E+00  0.00000000E+00
  0.00000000E+00  0.00000000E+00  0.00000000E+00
  0.00000000E+00  0.00000000E+00  0.00000000E+00
  0.00000000E+00  0.00000000E+00  0.00000000E+00
  0.00000000E+00  0.00000000E+00  0.00000000E+00
  0.00000000E+00  0.00000000E+00  0.00000000E+00
  0.00000000E+00  0.00000000E+00  0.00000000E+00
  0.00000000E+00  0.00000000E+00  0.00000000E+00
  0.00000000E+00  0.00000000E+00  0.00000000E+00
  0.00000000E+00  0.00000000E+00  0.00000000E+00
  0.00000000E+00  0.00000000E+00  0.00000000E+00
  0.00000000E+00  0.00000000E+00  0.00000000E+00
  0.00000000E+00  0.00000000E+00  0.00000000E+00
  0.00000000E+00  0.00000000E+00  0.00000000E+00
  0.00000000E+00  0.00000000E+00  0.00000000E+00
  0.00000000E+00  0.00000000E+00  0.00000000E+00
  0.00000000E+00  0.00000000E+00  0.00000000E+00
  0.00000000E+00  0.00000000E+00  0.00000000E+00
  0.00000000E+00  0.00000000E+00  0.00000000E+00
  0.00000000E+00  0.00000000E+00  0.00000000E+00
  0.00000000E+00  0.00000000E+00  0.00000000E+00
  0.00000000E+00  0.00000000E+00  0.00000000E+00
  0.00000000E+00  0.00000000E+00  0.00000000E+00
  0.00000000E+00  0.00000000E+00  0.00000000E+00
  0.00000000E+00  0.00000000E+00  0.00000000E+00
  0.00000000E+00  0.00000000E+00  0.00000000E+00
  0.00000000E+00  0.00000000E+00  0.00000000E+00
  0.00000000E+00  0.00000000E+00  0.00000000E+00
  0.00000000E+00  0.00000000E+00  0.00000000E+00
  0.00000000E+00  0.00000000E+00  0.00000000E+00
  0.00000000E+00  0.00000000E+00  0.00000000E+00
  0.00000000E+00  0.00000000E+00  0.00000000E+00
  0.00000000E+00  0.00000000E+00  0.00000000E+00
  0.00000000E+00  0.00000000E+00  0.00000000E+00
  0.00000000E+00  0.00000000E+00  0.00000000E+00
  0.00000000E+00  0.00000000E+00  0.00000000E+00
  0.00000000E+00  0.00000000E+00  0.00000000E+00
  0.00000000E+00  0.00000000E+00  0.00000000E+00
  0.00000000E+00  0.00000000E+00  0.00000000E+00
  0.00000000E+00  0.00000000E+00  0.00000000E+00
  0.00000000E+00  0.00000000E+00  0.00000000E+00
  0.00000000E+00  0.00000000E+00  0.00000000E+00
  0.00000000E+00  0.00000000E+00  0.00000000E+00
  0.00000000E+00  0.00000000E+00  0.00000000E+00
  0.00000000E+00  0.00000000E+00  0.00000000E+00
  0.00000000E+00  0.00000000E+00  0.00000000E+00
  0.00000000E+00  0.00000000E+00  0.00000000E+00
  0.00000000E+00  0.00000000E+00  0.00000000E+00
  0.00000000E+00  0.00000000E+00  0.00000000E+00
  0.00000000E+00  0.00000000E+00  0.00000000E+00
  0.00000000E+00  0.00000000E+00  0.00000000E+00
  0.00000000E+00  0.00000000E+00  0.00000000E+00
  0.00000000E+00  0.00000000E+00  0.00000000E+00
  0.00000000E+00  0.00000000E+00  0.00000000E+00
  0.00000000E+00  0.00000000E+00  0.00000000E+00
  0.00000000E+00  0.00000000E+00  0.00000000E+00
  0.00000000E+00  0.00000000E+00  0.00000000E+00
  0.00000000E+00  0.00000000E+00  0.00000000E+00
  0.00000000E+00  0.00000000E+00  0.00000000E+00
  0.00000000E+00  0.00000000E+00  0.00000000E+00
  0.00000000E+00  0.00000000E+00  0.00000000E+00
  0.00000000E+00  0.00000000E+00  0.00000000E+00
  0.00000000E+00  0.00000000E+00  0.00000000E+00
  0.00000000E+00  0.00000000E+00  0.00000000E+00
  0.00000000E+00  0.00000000E+00  0.00000000E+00
  0.00000000E+00  0.00000000E+00  0.00000000E+00
  0.00000000E+00  0.00000000E+00  0.00000000E+00
  0.00000000E+00  0.00000000E+00  0.00000000E+00
  0.00000000E+00  0.00000000E+00  0.00000000E+00
  0.00000000E+00  0.00000000E+00  0.00000000E+00
  0.00000000E+00  0.00000000E+00  0.00000000E+00
  0.00000000E+00  0.00000000E+00  0.00000000E+00
  0.00000000E+00  0.00000000E+00  0.00000000E+00
  0.00000000E+00  0.00000000E+00  0.00000000E+00
  0.00000000E+00  0.00000000E+00  0.00000000E+00
  0.00000000E+00  0.00000000E+00  0.00000000E+00
  0.00000000E+00  0.00000000E+00  0.00000000E+00
  0.00000000E+00  0.00000000E+00  0.00000000E+00
  0.00000000E+00  0.00000000E+00  0.00000000E+00
  0.00000000E+00  0.00000000E+00  0.00000000E+00
  0.00000000E+00  0.00000000E+00  0.00000000E+00
  0.00000000E+00  0.00000000E+00  0.00000000E+00
  0.00000000E+00  0.00000000E+00  0.00000000E+00
  0.00000000E+00  0.00000000E+00  0.00000000E+00
  0.00000000E+00  0.00000000E+00  0.00000000E+00
  0.00000000E+00  0.00000000E+00  0.00000000E+00
  0.00000000E+00  0.00000000E+00  0.00000000E+00
  0.00000000E+00  0.00000000E+00  0.00000000E+00
  0.00000000E+00  0.00000000E+00  0.00000000E+00
  0.00000000E+00  0.00000000E+00  0.00000000E+00
  0.00000000E+00  0.00000000E+00  0.00000000E+00
  0.00000000E+00  0.00000000E+00  0.00000000E+00
  0.00000000E+00  0.00000000E+00  0.00000000E+00
  0.00000000E+00  0.00000000E+00  0.00000000E+00
  0.00000000E+00  0.00000000E+00  0.00000000E+00
  0.00000000E+00  0.00000000E+00  0.00000000E+00
  0.00000000E+00  0.00000000E+00  0.00000000E+00
  0.00000000E+00  0.00000000E+00  0.00000000E+00
  0.00000000E+00  0.00000000E+00  0.00000000E+00
  0.00000000E+00  0.00000000E+00  0.00000000E+00
  0.00000000E+00  0.00000000E+00  0.00000000E+00
  0.00000000E+00  0.00000000E+00  0.00000000E+00
  0.00000000E+00  0.00000000E+00  0.00000000E+00
  0.00000000E+00  0.00000000E+00  0.00000000E+00
  0.00000000E+00  0.00000000E+00  0.00000000E+00
  0.00000000E+00  0.00000000E+00  0.00000000E+00
  0.00000000E+00  0.00000000E+00  0.00000000E+00
  0.00000000E+00  0.00000000E+00  0.00000000E+00
  0.00000000E+00  0.00000000E+00  0.00000000E+00
  0.00000000E+00  0.00000000E+00  0.00000000E+00
  0.00000000E+00  0.00000000E+00  0.00000000E+00
  0.00000000E+00  0.00000000E+00  0.00000000E+00
  0.00000000E+00  0.00000000E+00  0.00000000E+00
  0.00000000E+00  0.00000000E+00  0.00000000E+00
  0.00000000E+00  0.00000000E+00  0.00000000E+00
  0.00000000E+00  0.00000000E+00  0.00000000E+00
  0.00000000E+00  0.00000000E+00  0.00000000E+00
  0.00000000E+00  0.00000000E+00  0.00000000E+00
  0.00000000E+00  0.00000000E+00  0.00000000E+00
  0.00000000E+00  0.00000000E+00  0.00000000E+00
  0.00000000E+00  0.00000000E+00  0.00000000E+00
  0.00000000E+00  0.00000000E+00  0.00000000E+00
  0.00000000E+00  0.00000000E+00  0.00000000E+00
  0.00000000E+00  0.00000000E+00  0.00000000E+00
  0.00000000E+00  0.00000000E+00  0.00000000E+00
  0.00000000E+00  0.00000000E+00  0.00000000E+00
  0.00000000E+00  0.00000000E+00  0.00000000E+00
  0.00000000E+00  0.00000000E+00  0.00000000E+00
  0.00000000E+00  0.00000000E+00  0.00000000E+00
  0.00000000E+00  0.00000000E+00  0.00000000E+00
  0.00000000E+00  0.00000000E+00  0.00000000E+00
  0.00000000E+00  0.00000000E+00  0.00000000E+00
  0.00000000E+00  0.00000000E+00  0.00000000E+00
  0.00000000E+00  0.00000000E+00  0.00000000E+00
  0.00000000E+00  0.00000000E+00  0.00000000E+00
  0.00000000E+00  0.00000000E+00  0.00000000E+00
  0.00000000E+00  0.00000000E+00  0.00000000E+00
  0.00000000E+00  0.00000000E+00  0.00000000E+00
  0.00000000E+00  0.00000000E+00  0.00000000E+00
  0.00000000E+00  0.00000000E+00  0.00000000E+00
  0.00000000E+00  0.00000000E+00  0.00000000E+00
  0.00000000E+00  0.00000000E+00  0.00000000E+00
  0.00000000E+00  0.00000000E+00  0.00000000E+00
  0.00000000E+00  0.00000000E+00  0.00000000E+00
  0.00000000E+00  0.00000000E+00  0.00000000E+00
  0.00000000E+00  0.00000000E+00  0.00000000E+00
  0.00000000E+00  0.00000000E+00  0.00000000E+00
  0.00000000E+00  0.00000000E+00  0.00000000E+00
  0.00000000E+00  0.00000000E+00  0.00000000E+00
  0.00000000E+00  0.00000000E+00  0.00000000E+00
  0.00000000E+00  0.00000000E+00  0.00000000E+00
  0.00000000E+00  0.00000000E+00  0.00000000E+00
  0.00000000E+00  0.00000000E+00  0.00000000E+00
  0.00000000E+00  0.00000000E+00  0.00000000E+00
  0.00000000E+00  0.00000000E+00  0.00000000E+00
  0.00000000E+00  0.00000000E+00  0.00000000E+00
  0.00000000E+00  0.00000000E+00  0.00000000E+00
  0.00000000E+00  0.00000000E+00  0.00000000E+00
  0.00000000E+00  0.00000000E+00  0.00000000E+00
  0.00000000E+00  0.00000000E+00  0.00000000E+00
  0.00000000E+00  0.00000000E+00  0.00000000E+00
  0.00000000E+00  0.00000000E+00  0.00000000E+00
  0.00000000E+00  0.00000000E+00  0.00000000E+00
  0.00000000E+00  0.00000000E+00  0.00000000E+00
  0.00000000E+00  0.00000000E+00  0.00000000E+00
  0.00000000E+00  0.00000000E+00  0.00000000E+00
  0.00000000E+00  0.00000000E+00  0.00000000E+00
  0.00000000E+00  0.00000000E+00  0.00000000E+00
  0.00000000E+00  0.00000000E+00  0.00000000E+00
  0.00000000E+00  0.00000000E+00  0.00000000E+00
  0.00000000E+00  0.00000000E+00  0.00000000E+00
  0.00000000E+00  0.00000000E+00  0.00000000E+00
  0.00000000E+00  0.00000000E+00  0.00000000E+00
  0.00000000E+00  0.00000000E+00  0.00000000E+00
  0.00000000E+00  0.00000000E+00  0.00000000E+00
  0.00000000E+00  0.00000000E+00  0.00000000E+00
  0.00000000E+00  0.00000000E+00  0.00000000E+00
  0.00000000E+00  0.00000000E+00  0.00000000E+00
  0.00000000E+00  0.00000000E+00  0.00000000E+00
  0.00000000E+00  0.00000000E+00  0.00000000E+00
  0.00000000E+00  0.00000000E+00  0.00000000E+00
  0.00000000E+00  0.00000000E+00  0.00000000E+00
  0.00000000E+00  0.00000000E+00  0.00000000E+00
  0.00000000E+00  0.00000000E+00  0.00000000E+00
  0.00000000E+00  0.00000000E+00  0.00000000E+00
  0.00000000E+00  0.00000000E+00  0.00000000E+00
  0.00000000E+00  0.00000000E+00  0.00000000E+00
  0.00000000E+00  0.00000000E+00  0.00000000E+00
  0.00000000E+00  0.00000000E+00  0.00000000E+00
  0.00000000E+00  0.00000000E+00  0.00000000E+00
  0.00000000E+00  0.00000000E+00  0.00000000E+00
  0.00000000E+00  0.00000000E+00  0.00000000E+00
  0.00000000E+00  0.00000000E+00  0.00000000E+00
  0.00000000E+00  0.00000000E+00  0.00000000E+00
  0.00000000E+00  0.00000000E+00  0.00000000E+00
  0.00000000E+00  0.00000000E+00  0.00000000E+00
  0.00000000E+00  0.00000000E+00  0.00000000E+00
  0.00000000E+00  0.00000000E+00  0.00000000E+00
  0.00000000E+00  0.00000000E+00  0.00000000E+00
  0.00000000E+00  0.00000000E+00  0.00000000E+00
  0.00000000E+00  0.00000000E+00  0.00000000E+00
