In12 Ga42 Cu36 Ag18 Se108               
   1.0000000000000000     
    15.9409225586445338   -0.0274202821730828   -7.1541668108984258
    -3.1665117475886428   15.6316468016973857   -7.1485346002558385
    -0.0721317499570030   -0.0912453314071167   21.1979314912614569
   In   Ga   Cu   Ag   Se
    12    42    36    18   108
Direct
  0.1648781986047752  0.5013629185019255  0.9976309754580797
  0.8407353359443164  0.1679140919326727  0.0026888032973318
  0.8376423003878770  0.1708791039612407  0.6653401082259904
  0.2470885515518830  0.4161039883582305  0.1694517699322304
  0.5826877484844957  0.4202945752999412  0.1677842836576815
  0.5874210674034259  0.7514896343188440  0.1671079158845430
  0.9218527638794427  0.7530379234723696  0.5008591128080084
  0.5806555441349985  0.0852439571991539  0.4984517743267887
  0.5834506662383845  0.4192968597491031  0.8321675785487628
  0.2455043202594283  0.0854456184808257  0.8324808491199320
  0.5841722382001180  0.0868328358351889  0.8337618767098647
  0.9192465363110429  0.0846003501648553  0.8325863621137941
  0.4966301512098070  0.5031158946142256  0.9976986823340539
  0.8389971467473032  0.5055587425030907  0.0021362400785279
  0.1663332285366792  0.8302617831295507  0.9999077801074776
  0.4966637188523535  0.8274548931366184  0.9975797494502459
  0.8314848656138949  0.8281571502518474  0.9987161657935388
  0.1714358915515817  0.1720784067456478  0.0039307664743049
  0.4956332235462995  0.1670403467554209  0.0023343668290892
  0.1678983353556944  0.5034298574295519  0.3377104811571243
  0.4946234222968542  0.4979062778839634  0.3371914787625485
  0.8430783586073218  0.5025253052438501  0.3317686752901210
  0.1656114058961435  0.8356920385669611  0.3339454736712497
  0.4996314181542871  0.8361095494219128  0.3372144179825867
  0.8384298807907626  0.8392335707247796  0.3342286804344567
  0.1642964242899794  0.1632202391288615  0.3312249387561437
  0.4977435596849915  0.1667242706666272  0.3319251640333007
  0.8332937413563286  0.1601432412203465  0.3345643098563471
  0.1660846963745612  0.4977913967440131  0.6664708624103355
  0.4980499819710857  0.4980290701979939  0.6657284100036165
  0.8327855927979826  0.4965505106590058  0.6660683621666550
  0.1658889393153800  0.8322923431431448  0.6652552560871428
  0.5026657894632436  0.8281301004975319  0.6655397612735641
  0.8337213972225541  0.8293380204879028  0.6638766268951599
  0.1610002284512859  0.1708495319694237  0.6641392743972503
  0.4961118001695652  0.1699421080657189  0.6655006646421313
  0.9250804792908909  0.4247965223835379  0.1676177608924831
  0.2502715035774585  0.7544812435377182  0.1704485443930466
  0.9168792137085546  0.7531503338699110  0.1687775639447651
  0.2477399286367188  0.0842270109220635  0.1671797255291310
  0.5819718545048715  0.0783601213667495  0.1673935853707036
  0.9195374191145405  0.0759893305314208  0.1686359801817261
  0.2470641313030484  0.4126962858246301  0.4992978250653977
  0.5835405026071427  0.4135244600292864  0.5031892293905713
  0.9205950143310559  0.4141658976960301  0.4995206307425377
  0.2463567475616841  0.7517438084444024  0.4984743817698032
  0.5821810121314286  0.7502400584998625  0.4999001933238461
  0.2462304824040018  0.0852265769838425  0.4995391972094794
  0.9185262110390653  0.0827251222290073  0.4982613222798378
  0.2493466752193854  0.4168662948639650  0.8311053843219938
  0.9168108642970765  0.4187510139261406  0.8321445449072797
  0.2479415684301216  0.7460453517957362  0.8338581718312597
  0.5868265871610276  0.7426352884268255  0.8320481527999775
  0.9140822290578541  0.7441658821097477  0.8298326607135706
  0.0001028882810559  0.3370421649177402  0.9989677294859973
  0.3339532993557199  0.3325151110297782  0.9974820518192118
  0.3265656311097089  0.6636746281063424  0.9919775592958260
  0.6669742719874137  0.6671680511792815  0.9998133197456127
  0.3356439970417995  0.0019403213656588  0.0045495067627925
  0.3327684491870855  0.3270251322126825  0.3323078223014662
  0.0032149291698289  0.6710320273255803  0.3329867367233703
  0.3328494631201906  0.6788224520913104  0.3386197484158373
  0.0027199161947493  0.0005669206970538  0.3339575553269540
  0.3237643138108197  0.9968874130211844  0.3318605391074101
  0.6698492086932362  0.0009512464918515  0.3356047569612102
  0.9989604860050179  0.3360997569924180  0.6648770862542932
  0.3273883648818909  0.3353209630767040  0.6656866180655499
  0.6697773219052507  0.3365040905459438  0.6684008711848151
  0.0033908406412877  0.6597072553404928  0.6674755360587312
  0.6700675565547556  0.6638543582668177  0.6697097705645305
  0.0005297559922255  0.0015860839664512  0.6609850027783892
  0.0863424868165481  0.5902693050594934  0.1735304006570217
  0.7574996714992892  0.5882047279655964  0.1670900018427375
  0.0846279547327384  0.9182526292659432  0.1716857517733246
  0.7558336055898991  0.9157702236194254  0.1676135772283516
  0.0845230050951571  0.2553310222676046  0.1710285626186590
  0.4127848765929798  0.2451820115932293  0.1648794294687690
  0.0818483470399443  0.5834038868514568  0.5021611673850970
  0.0828182026497686  0.9175039259447644  0.4975836994234442
  0.4097305829697007  0.9155884259375355  0.4976353208209829
  0.7500966179926678  0.9176980883441317  0.4968829419941940
  0.0831987739414188  0.2468434756191726  0.4999656341698824
  0.7553171867995658  0.2506055855462250  0.4990511659969812
  0.0813438427486446  0.5814450853147761  0.8258229427801922
  0.4184166102435825  0.5835205874890477  0.8353346241452329
  0.7481988560169057  0.5791969019998362  0.8295010139158023
  0.7477334188602072  0.9045009636674237  0.8280453991994818
  0.0856485571007184  0.2545923827585881  0.8353015892024089
  0.4090570533133402  0.2542379428653661  0.8318765021186749
  0.7529331792331888  0.2608119210977122  0.8333496296657259
  0.6674240437592758  0.3403140968804621  0.0032417508141123
  0.0012492035029226  0.6719429649771413  0.0023687083645996
  0.0066751816810040  0.0022477925033542  0.0072922069309840
  0.6644027475587251  0.9906487993201551  0.0020001822457516
  0.0061968317024679  0.3300726423716043  0.3359688089473138
  0.6631367038315403  0.3338194867775854  0.3348932166446730
  0.6691890289735909  0.6646415268249513  0.3368072931326296
  0.3253632804762674  0.6614110734834711  0.6636561211474117
  0.3314133492980318  0.0004208222065998  0.6605438399205568
  0.6660299115668877  0.9946131774985218  0.6613534622933201
  0.4083247447149461  0.5822447824168506  0.1689145924770585
  0.4139948974000305  0.9162677509921835  0.1670185188504405
  0.7575356136668034  0.2509672378859307  0.1738247435895843
  0.4169321384445226  0.5855997444150773  0.4973345167336589
  0.7536135066415639  0.5778314853291420  0.5002862636837691
  0.4140707333115543  0.2497386116295885  0.4990524126060834
  0.0813108519309935  0.9124098139525074  0.8296222552675019
  0.4181461433165126  0.9074432994543287  0.8346827779970880
  0.1152375923763245  0.4642712772077147  0.0855738003229760
  0.4507825391080758  0.4583717914597756  0.0749854417614060
  0.8016055733835827  0.4682187871177774  0.0878747318016622
  0.1317411961830857  0.8026612993654183  0.0917113422017053
  0.4498988198161555  0.7822601360593850  0.0730529046132773
  0.7893991119966017  0.7901517771378295  0.0833274232492656
  0.1312180835490722  0.1384186994205123  0.0909046591317946
  0.4572588253385064  0.1232774298237231  0.0861815773536136
  0.7996929580184471  0.1180397300697820  0.0880140480887519
  0.1312375108364492  0.4678969779475821  0.4251251696531142
  0.4571529386551134  0.4459002679745439  0.4148027779552876
  0.8037093940147386  0.4552904534592130  0.4117943400385826
  0.1232582849906834  0.7957292438308556  0.4168330503983384
  0.4582497478918981  0.7964120700444752  0.4209087921053651
  0.7939805967596740  0.8015869180240003  0.4153639631943378
  0.1222328340395507  0.1254109750131676  0.4153810137639198
  0.4459979403735375  0.1169637142782705  0.4029130491562896
  0.7913040298337535  0.1236633044863567  0.4187867195863078
  0.1224552683405165  0.4570096932555003  0.7478820679643263
  0.4478142072958846  0.4601693725223654  0.7446102632960887
  0.7909199082026319  0.4577211002784267  0.7499891791248601
  0.1262979308330117  0.7802790512623048  0.7432559665578466
  0.4662860474658785  0.7832496646305742  0.7474389215309003
  0.7916440166300944  0.7873460042535783  0.7466565550704871
  0.1138773692474118  0.1303155965815890  0.7443588879909768
  0.4553304963709550  0.1382886127958471  0.7514168583441929
  0.7879794348765614  0.1350254884408315  0.7528142999941352
  0.2903756650486926  0.6379066872477992  0.0824490411687222
  0.6301986505875163  0.6175391636312639  0.0786540225298680
  0.9623342245720465  0.6286575229053568  0.0921049752635312
  0.2829748506783645  0.9607850730315519  0.0786353031093370
  0.6216786167161601  0.9491668027114812  0.0898234718672484
  0.9574234522787677  0.9492856878540863  0.0877699582431859
  0.2982870707015692  0.2905184388936135  0.0808441206979680
  0.6209322134737008  0.2839344528495005  0.0821934605271863
  0.9713013868220699  0.3018358666362460  0.0889212580604593
  0.2855768533219702  0.6313148007674911  0.4130182146787078
  0.6161778152939021  0.6208346440686441  0.4185156953657199
  0.9677835488710045  0.6226134204509037  0.4130970602991937
  0.2896955043728795  0.9602833089826390  0.4181087399188428
  0.6282011184848102  0.9538946786356846  0.4132334145562808
  0.9636065857532472  0.9610804095156951  0.4166137557071039
  0.2816460867865018  0.2907301700116705  0.4101630875834488
  0.6238170117229274  0.2876315649295904  0.4233146404022250
  0.9573691618025890  0.2842810196788861  0.4197480594232204
  0.2907220906804824  0.6203548223813797  0.7561712075482703
  0.6256346224045899  0.6190657135797935  0.7477497249861358
  0.9567515063911003  0.6210039846050890  0.7464488443457924
  0.2881624021533824  0.9519283110459469  0.7464984872940548
  0.6264466901039683  0.9485033374469367  0.7505518827195132
  0.9545854468621471  0.9540869798646483  0.7359732512758725
  0.2886956401341294  0.2923204963231214  0.7472400496832776
  0.6268856517897134  0.2872641487951029  0.7432230703211076
  0.9693909911838716  0.3021595632118732  0.7552057645208876
  0.2075842376954284  0.3736602895994139  0.2603978903150335
  0.5282253946181399  0.3746737615100528  0.2491109503405013
  0.8831331687749469  0.3830066962357677  0.2481105252971005
  0.2084072562315029  0.7109156441829398  0.2519059341340935
  0.5386869130584273  0.7146711604635172  0.2550960642791864
  0.8780177690721018  0.7118399175568442  0.2526153610292070
  0.2062870834655044  0.0396944267177517  0.2493066070775001
  0.5478660722287074  0.0454806985225886  0.2566447765704183
  0.8774998686052413  0.0376900637004525  0.2521946924132479
  0.2038996352780060  0.3711882223347018  0.5812866571307680
  0.5471294135980074  0.3776810881925101  0.5898224703488424
  0.8752386066422062  0.3741612558660776  0.5816671481654083
  0.1993710054182998  0.7092352081797273  0.5767993347283493
  0.5530773156775837  0.7108512597760779  0.5884850184273631
  0.8849194936435580  0.7087877826123261  0.5918353975810433
  0.1970510124898510  0.0456001070040912  0.5777147194782728
  0.5278719851505969  0.0406053005904852  0.5816541376698510
  0.8761815546629848  0.0346219534090935  0.5761278707929165
  0.2127892599642820  0.3696051450836819  0.9128372704796988
  0.5296805307008796  0.3756977838776479  0.9145983940581175
  0.8775868522343728  0.3788492809860671  0.9172665309819834
  0.2028713319904796  0.7037203449839780  0.9139942714902745
  0.5420863957065478  0.7044937763932779  0.9156187093285695
  0.8655824162825425  0.7048482179960516  0.9090850771367798
  0.2118488505244542  0.0449127356033401  0.9266231336455633
  0.5393566136921635  0.0474768781592090  0.9227314526836068
  0.8685229616923280  0.0278841044053237  0.9092269760108636
  0.0474529484161508  0.5486277331232827  0.2544998901344471
  0.3747629598662456  0.5505448736433962  0.2656629128412362
  0.7214490532089926  0.5444984897225567  0.2492816331961123
  0.0419884568882125  0.8777216888406301  0.2515214800010384
  0.3726161872523761  0.8771031999424039  0.2585066868129786
  0.7176506955036501  0.8854810366229060  0.2548002453938381
  0.0426555330867302  0.1977501396367387  0.2426044215842396
  0.3733116729059631  0.2077322476988215  0.2484251143354683
  0.7083428386540049  0.1973239793468409  0.2520245385444824
  0.0430942627264699  0.5403662913302654  0.5829165399261669
  0.3731604905868693  0.5305800485054135  0.5795684280483400
  0.7060655738097665  0.5378451930954071  0.5877921372317658
  0.0517580950965240  0.8855404051003504  0.5873713850519948
  0.3780798771596494  0.8664518573100111  0.5789165262468501
  0.7124388237325974  0.8658466863167007  0.5737642847404558
  0.0378286346212207  0.2123516313900140  0.5819858899333354
  0.3681242620993217  0.2104894811340330  0.5873907928882289
  0.7086093479697766  0.2204282970645153  0.5815736937227882
  0.0363582908640510  0.5421692039529304  0.9051438945545129
  0.3720630466747537  0.5438296847094364  0.9144998985845945
  0.7170158428474807  0.5508809135730104  0.9210768530793629
  0.0394371967641192  0.8633860345658348  0.9154517443057628
  0.3695972959768170  0.8719606248847072  0.9227583722813435
  0.7100234186137087  0.8655288100800789  0.9113087807720959
  0.0507450245522989  0.2191909534313368  0.9225856998982920
  0.3796484120356496  0.2149999843631960  0.9192485710780147
  0.7158299145892002  0.2164416112175473  0.9136747563278362

  0.00000000E+00  0.00000000E+00  0.00000000E+00
  0.00000000E+00  0.00000000E+00  0.00000000E+00
  0.00000000E+00  0.00000000E+00  0.00000000E+00
  0.00000000E+00  0.00000000E+00  0.00000000E+00
  0.00000000E+00  0.00000000E+00  0.00000000E+00
  0.00000000E+00  0.00000000E+00  0.00000000E+00
  0.00000000E+00  0.00000000E+00  0.00000000E+00
  0.00000000E+00  0.00000000E+00  0.00000000E+00
  0.00000000E+00  0.00000000E+00  0.00000000E+00
  0.00000000E+00  0.00000000E+00  0.00000000E+00
  0.00000000E+00  0.00000000E+00  0.00000000E+00
  0.00000000E+00  0.00000000E+00  0.00000000E+00
  0.00000000E+00  0.00000000E+00  0.00000000E+00
  0.00000000E+00  0.00000000E+00  0.00000000E+00
  0.00000000E+00  0.00000000E+00  0.00000000E+00
  0.00000000E+00  0.00000000E+00  0.00000000E+00
  0.00000000E+00  0.00000000E+00  0.00000000E+00
  0.00000000E+00  0.00000000E+00  0.00000000E+00
  0.00000000E+00  0.00000000E+00  0.00000000E+00
  0.00000000E+00  0.00000000E+00  0.00000000E+00
  0.00000000E+00  0.00000000E+00  0.00000000E+00
  0.00000000E+00  0.00000000E+00  0.00000000E+00
  0.00000000E+00  0.00000000E+00  0.00000000E+00
  0.00000000E+00  0.00000000E+00  0.00000000E+00
  0.00000000E+00  0.00000000E+00  0.00000000E+00
  0.00000000E+00  0.00000000E+00  0.00000000E+00
  0.00000000E+00  0.00000000E+00  0.00000000E+00
  0.00000000E+00  0.00000000E+00  0.00000000E+00
  0.00000000E+00  0.00000000E+00  0.00000000E+00
  0.00000000E+00  0.00000000E+00  0.00000000E+00
  0.00000000E+00  0.00000000E+00  0.00000000E+00
  0.00000000E+00  0.00000000E+00  0.00000000E+00
  0.00000000E+00  0.00000000E+00  0.00000000E+00
  0.00000000E+00  0.00000000E+00  0.00000000E+00
  0.00000000E+00  0.00000000E+00  0.00000000E+00
  0.00000000E+00  0.00000000E+00  0.00000000E+00
  0.00000000E+00  0.00000000E+00  0.00000000E+00
  0.00000000E+00  0.00000000E+00  0.00000000E+00
  0.00000000E+00  0.00000000E+00  0.00000000E+00
  0.00000000E+00  0.00000000E+00  0.00000000E+00
  0.00000000E+00  0.00000000E+00  0.00000000E+00
  0.00000000E+00  0.00000000E+00  0.00000000E+00
  0.00000000E+00  0.00000000E+00  0.00000000E+00
  0.00000000E+00  0.00000000E+00  0.00000000E+00
  0.00000000E+00  0.00000000E+00  0.00000000E+00
  0.00000000E+00  0.00000000E+00  0.00000000E+00
  0.00000000E+00  0.00000000E+00  0.00000000E+00
  0.00000000E+00  0.00000000E+00  0.00000000E+00
  0.00000000E+00  0.00000000E+00  0.00000000E+00
  0.00000000E+00  0.00000000E+00  0.00000000E+00
  0.00000000E+00  0.00000000E+00  0.00000000E+00
  0.00000000E+00  0.00000000E+00  0.00000000E+00
  0.00000000E+00  0.00000000E+00  0.00000000E+00
  0.00000000E+00  0.00000000E+00  0.00000000E+00
  0.00000000E+00  0.00000000E+00  0.00000000E+00
  0.00000000E+00  0.00000000E+00  0.00000000E+00
  0.00000000E+00  0.00000000E+00  0.00000000E+00
  0.00000000E+00  0.00000000E+00  0.00000000E+00
  0.00000000E+00  0.00000000E+00  0.00000000E+00
  0.00000000E+00  0.00000000E+00  0.00000000E+00
  0.00000000E+00  0.00000000E+00  0.00000000E+00
  0.00000000E+00  0.00000000E+00  0.00000000E+00
  0.00000000E+00  0.00000000E+00  0.00000000E+00
  0.00000000E+00  0.00000000E+00  0.00000000E+00
  0.00000000E+00  0.00000000E+00  0.00000000E+00
  0.00000000E+00  0.00000000E+00  0.00000000E+00
  0.00000000E+00  0.00000000E+00  0.00000000E+00
  0.00000000E+00  0.00000000E+00  0.00000000E+00
  0.00000000E+00  0.00000000E+00  0.00000000E+00
  0.00000000E+00  0.00000000E+00  0.00000000E+00
  0.00000000E+00  0.00000000E+00  0.00000000E+00
  0.00000000E+00  0.00000000E+00  0.00000000E+00
  0.00000000E+00  0.00000000E+00  0.00000000E+00
  0.00000000E+00  0.00000000E+00  0.00000000E+00
  0.00000000E+00  0.00000000E+00  0.00000000E+00
  0.00000000E+00  0.00000000E+00  0.00000000E+00
  0.00000000E+00  0.00000000E+00  0.00000000E+00
  0.00000000E+00  0.00000000E+00  0.00000000E+00
  0.00000000E+00  0.00000000E+00  0.00000000E+00
  0.00000000E+00  0.00000000E+00  0.00000000E+00
  0.00000000E+00  0.00000000E+00  0.00000000E+00
  0.00000000E+00  0.00000000E+00  0.00000000E+00
  0.00000000E+00  0.00000000E+00  0.00000000E+00
  0.00000000E+00  0.00000000E+00  0.00000000E+00
  0.00000000E+00  0.00000000E+00  0.00000000E+00
  0.00000000E+00  0.00000000E+00  0.00000000E+00
  0.00000000E+00  0.00000000E+00  0.00000000E+00
  0.00000000E+00  0.00000000E+00  0.00000000E+00
  0.00000000E+00  0.00000000E+00  0.00000000E+00
  0.00000000E+00  0.00000000E+00  0.00000000E+00
  0.00000000E+00  0.00000000E+00  0.00000000E+00
  0.00000000E+00  0.00000000E+00  0.00000000E+00
  0.00000000E+00  0.00000000E+00  0.00000000E+00
  0.00000000E+00  0.00000000E+00  0.00000000E+00
  0.00000000E+00  0.00000000E+00  0.00000000E+00
  0.00000000E+00  0.00000000E+00  0.00000000E+00
  0.00000000E+00  0.00000000E+00  0.00000000E+00
  0.00000000E+00  0.00000000E+00  0.00000000E+00
  0.00000000E+00  0.00000000E+00  0.00000000E+00
  0.00000000E+00  0.00000000E+00  0.00000000E+00
  0.00000000E+00  0.00000000E+00  0.00000000E+00
  0.00000000E+00  0.00000000E+00  0.00000000E+00
  0.00000000E+00  0.00000000E+00  0.00000000E+00
  0.00000000E+00  0.00000000E+00  0.00000000E+00
  0.00000000E+00  0.00000000E+00  0.00000000E+00
  0.00000000E+00  0.00000000E+00  0.00000000E+00
  0.00000000E+00  0.00000000E+00  0.00000000E+00
  0.00000000E+00  0.00000000E+00  0.00000000E+00
  0.00000000E+00  0.00000000E+00  0.00000000E+00
  0.00000000E+00  0.00000000E+00  0.00000000E+00
  0.00000000E+00  0.00000000E+00  0.00000000E+00
  0.00000000E+00  0.00000000E+00  0.00000000E+00
  0.00000000E+00  0.00000000E+00  0.00000000E+00
  0.00000000E+00  0.00000000E+00  0.00000000E+00
  0.00000000E+00  0.00000000E+00  0.00000000E+00
  0.00000000E+00  0.00000000E+00  0.00000000E+00
  0.00000000E+00  0.00000000E+00  0.00000000E+00
  0.00000000E+00  0.00000000E+00  0.00000000E+00
  0.00000000E+00  0.00000000E+00  0.00000000E+00
  0.00000000E+00  0.00000000E+00  0.00000000E+00
  0.00000000E+00  0.00000000E+00  0.00000000E+00
  0.00000000E+00  0.00000000E+00  0.00000000E+00
  0.00000000E+00  0.00000000E+00  0.00000000E+00
  0.00000000E+00  0.00000000E+00  0.00000000E+00
  0.00000000E+00  0.00000000E+00  0.00000000E+00
  0.00000000E+00  0.00000000E+00  0.00000000E+00
  0.00000000E+00  0.00000000E+00  0.00000000E+00
  0.00000000E+00  0.00000000E+00  0.00000000E+00
  0.00000000E+00  0.00000000E+00  0.00000000E+00
  0.00000000E+00  0.00000000E+00  0.00000000E+00
  0.00000000E+00  0.00000000E+00  0.00000000E+00
  0.00000000E+00  0.00000000E+00  0.00000000E+00
  0.00000000E+00  0.00000000E+00  0.00000000E+00
  0.00000000E+00  0.00000000E+00  0.00000000E+00
  0.00000000E+00  0.00000000E+00  0.00000000E+00
  0.00000000E+00  0.00000000E+00  0.00000000E+00
  0.00000000E+00  0.00000000E+00  0.00000000E+00
  0.00000000E+00  0.00000000E+00  0.00000000E+00
  0.00000000E+00  0.00000000E+00  0.00000000E+00
  0.00000000E+00  0.00000000E+00  0.00000000E+00
  0.00000000E+00  0.00000000E+00  0.00000000E+00
  0.00000000E+00  0.00000000E+00  0.00000000E+00
  0.00000000E+00  0.00000000E+00  0.00000000E+00
  0.00000000E+00  0.00000000E+00  0.00000000E+00
  0.00000000E+00  0.00000000E+00  0.00000000E+00
  0.00000000E+00  0.00000000E+00  0.00000000E+00
  0.00000000E+00  0.00000000E+00  0.00000000E+00
  0.00000000E+00  0.00000000E+00  0.00000000E+00
  0.00000000E+00  0.00000000E+00  0.00000000E+00
  0.00000000E+00  0.00000000E+00  0.00000000E+00
  0.00000000E+00  0.00000000E+00  0.00000000E+00
  0.00000000E+00  0.00000000E+00  0.00000000E+00
  0.00000000E+00  0.00000000E+00  0.00000000E+00
  0.00000000E+00  0.00000000E+00  0.00000000E+00
  0.00000000E+00  0.00000000E+00  0.00000000E+00
  0.00000000E+00  0.00000000E+00  0.00000000E+00
  0.00000000E+00  0.00000000E+00  0.00000000E+00
  0.00000000E+00  0.00000000E+00  0.00000000E+00
  0.00000000E+00  0.00000000E+00  0.00000000E+00
  0.00000000E+00  0.00000000E+00  0.00000000E+00
  0.00000000E+00  0.00000000E+00  0.00000000E+00
  0.00000000E+00  0.00000000E+00  0.00000000E+00
  0.00000000E+00  0.00000000E+00  0.00000000E+00
  0.00000000E+00  0.00000000E+00  0.00000000E+00
  0.00000000E+00  0.00000000E+00  0.00000000E+00
  0.00000000E+00  0.00000000E+00  0.00000000E+00
  0.00000000E+00  0.00000000E+00  0.00000000E+00
  0.00000000E+00  0.00000000E+00  0.00000000E+00
  0.00000000E+00  0.00000000E+00  0.00000000E+00
  0.00000000E+00  0.00000000E+00  0.00000000E+00
  0.00000000E+00  0.00000000E+00  0.00000000E+00
  0.00000000E+00  0.00000000E+00  0.00000000E+00
  0.00000000E+00  0.00000000E+00  0.00000000E+00
  0.00000000E+00  0.00000000E+00  0.00000000E+00
  0.00000000E+00  0.00000000E+00  0.00000000E+00
  0.00000000E+00  0.00000000E+00  0.00000000E+00
  0.00000000E+00  0.00000000E+00  0.00000000E+00
  0.00000000E+00  0.00000000E+00  0.00000000E+00
  0.00000000E+00  0.00000000E+00  0.00000000E+00
  0.00000000E+00  0.00000000E+00  0.00000000E+00
  0.00000000E+00  0.00000000E+00  0.00000000E+00
  0.00000000E+00  0.00000000E+00  0.00000000E+00
  0.00000000E+00  0.00000000E+00  0.00000000E+00
  0.00000000E+00  0.00000000E+00  0.00000000E+00
  0.00000000E+00  0.00000000E+00  0.00000000E+00
  0.00000000E+00  0.00000000E+00  0.00000000E+00
  0.00000000E+00  0.00000000E+00  0.00000000E+00
  0.00000000E+00  0.00000000E+00  0.00000000E+00
  0.00000000E+00  0.00000000E+00  0.00000000E+00
  0.00000000E+00  0.00000000E+00  0.00000000E+00
  0.00000000E+00  0.00000000E+00  0.00000000E+00
  0.00000000E+00  0.00000000E+00  0.00000000E+00
  0.00000000E+00  0.00000000E+00  0.00000000E+00
  0.00000000E+00  0.00000000E+00  0.00000000E+00
  0.00000000E+00  0.00000000E+00  0.00000000E+00
  0.00000000E+00  0.00000000E+00  0.00000000E+00
  0.00000000E+00  0.00000000E+00  0.00000000E+00
  0.00000000E+00  0.00000000E+00  0.00000000E+00
  0.00000000E+00  0.00000000E+00  0.00000000E+00
  0.00000000E+00  0.00000000E+00  0.00000000E+00
  0.00000000E+00  0.00000000E+00  0.00000000E+00
  0.00000000E+00  0.00000000E+00  0.00000000E+00
  0.00000000E+00  0.00000000E+00  0.00000000E+00
  0.00000000E+00  0.00000000E+00  0.00000000E+00
  0.00000000E+00  0.00000000E+00  0.00000000E+00
  0.00000000E+00  0.00000000E+00  0.00000000E+00
  0.00000000E+00  0.00000000E+00  0.00000000E+00
  0.00000000E+00  0.00000000E+00  0.00000000E+00
  0.00000000E+00  0.00000000E+00  0.00000000E+00
  0.00000000E+00  0.00000000E+00  0.00000000E+00
  0.00000000E+00  0.00000000E+00  0.00000000E+00
  0.00000000E+00  0.00000000E+00  0.00000000E+00
  0.00000000E+00  0.00000000E+00  0.00000000E+00
  0.00000000E+00  0.00000000E+00  0.00000000E+00
  0.00000000E+00  0.00000000E+00  0.00000000E+00
  0.00000000E+00  0.00000000E+00  0.00000000E+00
