In30 Ga24 Cu6 Ag48 Se108                
   1.0000000000000000     
    16.5454911034820391    0.0032675159786993   -7.6059660516393919
    -3.5180350002290788   16.1968024387445482   -7.6471053720373154
     0.0220272404728796    0.0271163058864978   21.8305775935264421
   In   Ga   Cu   Ag   Se
    30    24     6    48   108
Direct
  0.1654272483016257  0.4998796478512304  0.9986021295298428
  0.5026716242902438  0.5068884692579729  0.0022046083378484
  0.8337169317477517  0.5008518840616745  0.0009906043379218
  0.8385119231917812  0.8322994838026645  0.0040325362274345
  0.1662516863786720  0.1684405898401451  0.0034139349650530
  0.8351649721043444  0.1697873526156428  0.0038669797983601
  0.1717165220124954  0.8353301599822274  0.3337277648834274
  0.4974931600806940  0.8355633857151119  0.3361427057900386
  0.1700928298165678  0.1634931200579146  0.3343531008500022
  0.8305898487513730  0.1733200394455068  0.3353358025735318
  0.1650869145645402  0.5020494988451460  0.6658253418759656
  0.8252050684668859  0.8286938568937501  0.6610391232516406
  0.1696072830793511  0.1664781033645326  0.6630989934015261
  0.8258221437177866  0.1667334102672484  0.6640976298460473
  0.2513155698139045  0.4190182005946568  0.1712469647921822
  0.5834524966630070  0.4157500608336804  0.1697103129236552
  0.2500378094362290  0.7531798376371910  0.1671388930762703
  0.2479759739096821  0.0785055332641349  0.1678655897377794
  0.5792920027721209  0.0847824644430517  0.1657627281641538
  0.9212966792489681  0.0839064303240278  0.1687943939579029
  0.2554375814714192  0.4171947593700978  0.4990231094229713
  0.2518775726786231  0.7451281189503405  0.4985521462169089
  0.9164365638670446  0.7457458927720779  0.4960170461312927
  0.9128423707526210  0.0799457772001730  0.4966787003910866
  0.2530690977574750  0.4197358634017192  0.8324004724676470
  0.5821102139361258  0.7475337831228472  0.8324052519249676
  0.9147815834136850  0.7451832093387694  0.8314256800316429
  0.2509041642373404  0.0797621020428068  0.8327101942677970
  0.5812471672982511  0.0834013421223290  0.8304990318133960
  0.9144287203039028  0.0823942669151876  0.8323653485753297
  0.1660094522793401  0.8328187591693847  0.9981974271881455
  0.5003540029861071  0.8288984095451184  0.0017353522745580
  0.4991881247237089  0.1665531157955300  0.9989206767420811
  0.1665218659054517  0.4968995156519540  0.3304238954296537
  0.5034939404750816  0.5036249284232071  0.3401056671197082
  0.8313971039830435  0.4944350374493993  0.3314332989241962
  0.8317392909752570  0.8317650705222306  0.3294681285633345
  0.4993051493389586  0.1678818483045035  0.3351747053761684
  0.5013957711800501  0.5014427688547087  0.6665830777520796
  0.8313357895345277  0.4959304669885327  0.6615040188274577
  0.1709288926204806  0.8286558642830286  0.6671812974440101
  0.5013246667652425  0.8315966538826487  0.6640468795944869
  0.4963358228364640  0.1696667161444125  0.6634417610024315
  0.9215413064900417  0.4168820688791470  0.1720813521178854
  0.5874588900146165  0.7526634488300843  0.1697500505025999
  0.9188173232657064  0.7542033132948589  0.1686610313808714
  0.5818741069905684  0.4160011177476051  0.4990721732685373
  0.9130892734412015  0.4186688919262949  0.4972860453969830
  0.5762626016260981  0.7465874267763368  0.4974365360256385
  0.2540998179175418  0.0836408945817553  0.4995010806106848
  0.5777714898776907  0.0871729550109066  0.4982871296713540
  0.5784575338252580  0.4198930760659891  0.8306859516733383
  0.9160054418175889  0.4181681484711177  0.8300819626142513
  0.2553240817406675  0.7493220985150728  0.8368555560338535
  0.6634065953179658  0.3365288764189742  0.3385801221549940
  0.3378312930110283  0.6630722610590354  0.3361424590809037
  0.3347797633914738  0.0053196910779292  0.3369269681196343
  0.0884059503018690  0.9140310675702707  0.1663063456647436
  0.0837071402308069  0.2559138124860567  0.1726664503122706
  0.4205804418192542  0.5859756151420896  0.8330255131760680
  0.9951852431670787  0.3359441596580055  0.0035016190632859
  0.3377656320447571  0.3299522569871414  0.0005793097329345
  0.6673404242032532  0.3352012956185746  0.0013154159157978
  0.0030809812979200  0.6688019312387894  0.0044438738357115
  0.3357045513043744  0.6725063047809385  0.9981427497714392
  0.6641520726936818  0.6667645012754377  0.0010648262633808
  0.0079269555646349  0.0015567692695484  0.0054159339838549
  0.3355744585867342  0.9964749169042406  0.9970126214629929
  0.6598001107295346  0.9995510631291040  0.9999007286854891
  0.0010438555425907  0.3380843611097646  0.3346563228969970
  0.3381074890867524  0.3385356641966695  0.3331093734116308
  0.9992289194987691  0.6632014154828241  0.3293219765375142
  0.6626995058487211  0.6662072907898420  0.3331652704047983
  0.0048015525262741  0.9933288413135628  0.3306832946058478
  0.6600288682606745  0.9965961993453973  0.3334845678137057
  0.9918629072655918  0.3341534456718875  0.6628763883123625
  0.3429826058164736  0.3405641414013658  0.6693302788523425
  0.6622788918128037  0.3362804992546842  0.6658043809972085
  0.0040733105248165  0.6711262081646012  0.6676382324732657
  0.3351291962771867  0.6691515660807497  0.6743710628166824
  0.6628762780871540  0.6593706863331619  0.6591766386962519
  0.0050863792937363  0.9965197357379552  0.6672852783053429
  0.3322117850069048  0.9957521435028269  0.6618865476040838
  0.6566227371714533  0.9937265130967319  0.6571005383659738
  0.0861948304212845  0.5911024823846844  0.1743047470861470
  0.4155756769331447  0.5857863237360164  0.1732004643693230
  0.7606228652067628  0.5847256001713887  0.1742207252900627
  0.4149781699201895  0.9150622716883774  0.1668669722995944
  0.7499603958289498  0.9171842349510158  0.1698715528967867
  0.4249723588101588  0.2542577728143911  0.1757992783988840
  0.7486704425982253  0.2516570309283850  0.1693901973590357
  0.0806992819629144  0.5826845044952123  0.4968269818935767
  0.4137906369824975  0.5844026033779883  0.4994210339023937
  0.7451163847541551  0.5730525630491243  0.4928696606131950
  0.0799551752498644  0.9157648410145001  0.5003105287791954
  0.4205870602789190  0.9195991125703600  0.5002917920290741
  0.7505037063105888  0.9138843380407309  0.4963282477901529
  0.0839261982504809  0.2506305282106780  0.4993908101877977
  0.4235600300864988  0.2464234753108769  0.5024525045078434
  0.7434453647515582  0.2556999946614980  0.4969472415683782
  0.0807840575199634  0.5876621001179316  0.8331466640020935
  0.7458573423557482  0.5714555032082274  0.8263070978883107
  0.0817780622513098  0.9062405310912354  0.8280552188612020
  0.4152809772406485  0.9129653221887182  0.8346353737619623
  0.7473115593033341  0.9180862401871011  0.8346907767991212
  0.0813480055120266  0.2525179413024219  0.8316606451804560
  0.4243103749410366  0.2507944322561713  0.8347136291543649
  0.7439425176621839  0.2573355211727204  0.8273693195591321
  0.1256761862136102  0.4616811310799278  0.0861550689252724
  0.4599577565321056  0.4616298676717463  0.0855886878349281
  0.8033678567266591  0.4551992266140772  0.0904804913558053
  0.1258445324456900  0.7994803250515758  0.0816402241397824
  0.4706467977126891  0.7938362234679275  0.0883113312506936
  0.7979797264278616  0.7896346426892364  0.0892830924953856
  0.1254191895253882  0.1376922649268337  0.0952431118103974
  0.4573679342898771  0.1285673474558635  0.0775135189568417
  0.7912150773260223  0.1235162863857937  0.0852910832896328
  0.1321587598515421  0.4628418633974292  0.4140409393015290
  0.4685882486907076  0.4621794567937840  0.4205688246671784
  0.7912712831148383  0.4475760483436488  0.4084325484614055
  0.1270487394029445  0.7912161518943961  0.4160905813123534
  0.4549107848314264  0.7816957925797112  0.4160113925603213
  0.7943702708379163  0.7911043934171857  0.4088610360322420
  0.1326789202562679  0.1220442731959110  0.4220798503574841
  0.4586635956835963  0.1191966801625455  0.4106102186967320
  0.7869267094421986  0.1255695079726991  0.4159423384089109
  0.1228192190871553  0.4585452076712286  0.7491639508978309
  0.4659434927490622  0.4709823323852689  0.7545630529060077
  0.7994701048074333  0.4539645628848632  0.7441109560624994
  0.1401191001895796  0.7880848830936458  0.7510287410200078
  0.4629167667459768  0.7945915525607887  0.7450058686083949
  0.7879053018705449  0.7891415992417663  0.7490611293959049
  0.1280021876868886  0.1263271665588590  0.7492486698585097
  0.4587830696491082  0.1251056670529707  0.7406602519266627
  0.7847682805497556  0.1223228094255333  0.7477887834762100
  0.2923579871469428  0.6272325743427487  0.0817686268490405
  0.6298462452776548  0.6336318919382080  0.0951431712257502
  0.9569434969693162  0.6330956780820429  0.0912166708262205
  0.2840509295821789  0.9510057444739601  0.0767605247328191
  0.6164649582275104  0.9507778931379889  0.0808899040847351
  0.9698754360336608  0.9555753739785757  0.0912534746107099
  0.2952976144467812  0.2931394558739768  0.0881015431558154
  0.6168047706712940  0.2855235791638577  0.0784844983480681
  0.9643860708230108  0.2968110449677113  0.0963175226445045
  0.2856957872355608  0.6166107863214876  0.4045010755250829
  0.6168967402281922  0.6267504233687831  0.4188981993804859
  0.9485686023941113  0.6136108699196186  0.4070205970834522
  0.2952809691022296  0.9688353629448585  0.4173596114200961
  0.6201105206821182  0.9664050077768138  0.4256970820125758
  0.9501045401508392  0.9499562306942195  0.4095389455060072
  0.2969631934485903  0.2893759833908405  0.4161412508785887
  0.6132285371941819  0.2946868851637632  0.4118412473611528
  0.9568820409910543  0.3010634817182591  0.4220137209919201
  0.2966208130253918  0.6276482464427957  0.7614023048736982
  0.6197473250986931  0.6181181513327658  0.7447854655055082
  0.9479062794019200  0.6163846601179799  0.7396634538084186
  0.2866191540786858  0.9492778117030340  0.7437802227258246
  0.6176085397583861  0.9515384780611313  0.7439296706355805
  0.9544719813170914  0.9533539320322717  0.7474504068870615
  0.2960733131987752  0.2928922326919050  0.7495806127777982
  0.6091160899154815  0.2958912119603667  0.7464000503299175
  0.9517758090919557  0.2965991683822438  0.7511347733707154
  0.2013144726828457  0.3738550487487657  0.2511992061439159
  0.5489641776141809  0.3850403683190251  0.2652091399083858
  0.8739438278730063  0.3811018042673524  0.2493249273961169
  0.2225635407616053  0.7076452002061728  0.2580916409017888
  0.5420906661537757  0.7147269722756420  0.2467420836388854
  0.8794121375295489  0.7204060471832960  0.2511931401315692
  0.2092709692506318  0.0295316714989085  0.2516149955876799
  0.5370474981186604  0.0496516098729032  0.2543047549605788
  0.8765439001534290  0.0461450434252839  0.2543081504955040
  0.2110266366138873  0.3774108361671580  0.5833275597936876
  0.5393130519093319  0.3846709192409676  0.5817370494934693
  0.8712895438473254  0.3823635105411611  0.5776952963310080
  0.2079118936525930  0.7097495712071620  0.5866094092195056
  0.5402702073876995  0.7143757646814919  0.5820336633727408
  0.8708512432652995  0.7036435119279787  0.5786321387241244
  0.2099251673606801  0.0407081765781712  0.5743523219675808
  0.5397239846771527  0.0559229960259628  0.5825274464172381
  0.8760474775520208  0.0418089902286027  0.5858047062221132
  0.2123952192398377  0.3759663389236181  0.9169330579923951
  0.5460838841477198  0.3828930445330840  0.9144310702451790
  0.8759844948035038  0.3795563345394086  0.9099992184863268
  0.2066950057894417  0.7167100541832525  0.9157561814345527
  0.5340208768655970  0.7080979040464825  0.9170011311026869
  0.8713733563545389  0.7023236567324105  0.9144376876844760
  0.2050402336048620  0.0398235760534362  0.9163665007948651
  0.5364384032026663  0.0479067575562055  0.9181333865739916
  0.8772761023284730  0.0417259047609022  0.9203117619995922
  0.0435276840747036  0.5318941968964950  0.2507477203999144
  0.3818862674406702  0.5447258754213635  0.2630818516135704
  0.7149507293804547  0.5384984123006262  0.2562608398272417
  0.0427832874555776  0.8682016551324594  0.2387369621608428
  0.3720136811724828  0.8854206830592446  0.2579602583253333
  0.7080869136848520  0.8695822392105228  0.2531406505364657
  0.0474884485149687  0.2119427333676072  0.2501747593857147
  0.3791492784406216  0.2027855710260056  0.2544269474513499
  0.7006142449100139  0.2187766318761533  0.2563176951148662
  0.0331941824912718  0.5356604393303641  0.5764066532480854
  0.3829998166893418  0.5434725390851796  0.5908549021453098
  0.7069163219974754  0.5285572680687309  0.5799316424426948
  0.0503318895791338  0.8666941959358354  0.5880968391873012
  0.3823413742190880  0.8690614485866774  0.5841752767703383
  0.6953083980517363  0.8637746002628361  0.5712739740832120
  0.0387682400197846  0.2072876715585394  0.5819807436718492
  0.3737332665700563  0.2027406745322651  0.5826530323556014
  0.6967698602950918  0.2045787872517622  0.5759625682923115
  0.0343509761413827  0.5367888346196210  0.9121044667660456
  0.3799227518833916  0.5473576543093088  0.9111260633577771
  0.7007570333650079  0.5349935974409021  0.9126118713201166
  0.0457955985636076  0.8698913281016374  0.9191744954313918
  0.3785828078749347  0.8637704828635862  0.9192288709104801
  0.7094566102061108  0.8738294417603498  0.9207320913878974
  0.0400292333318220  0.2103295983794666  0.9176235313803076
  0.3819346323481909  0.2037461770900038  0.9173647490266248
  0.7096240249275638  0.2088334823746436  0.9146968162334019

  0.00000000E+00  0.00000000E+00  0.00000000E+00
  0.00000000E+00  0.00000000E+00  0.00000000E+00
  0.00000000E+00  0.00000000E+00  0.00000000E+00
  0.00000000E+00  0.00000000E+00  0.00000000E+00
  0.00000000E+00  0.00000000E+00  0.00000000E+00
  0.00000000E+00  0.00000000E+00  0.00000000E+00
  0.00000000E+00  0.00000000E+00  0.00000000E+00
  0.00000000E+00  0.00000000E+00  0.00000000E+00
  0.00000000E+00  0.00000000E+00  0.00000000E+00
  0.00000000E+00  0.00000000E+00  0.00000000E+00
  0.00000000E+00  0.00000000E+00  0.00000000E+00
  0.00000000E+00  0.00000000E+00  0.00000000E+00
  0.00000000E+00  0.00000000E+00  0.00000000E+00
  0.00000000E+00  0.00000000E+00  0.00000000E+00
  0.00000000E+00  0.00000000E+00  0.00000000E+00
  0.00000000E+00  0.00000000E+00  0.00000000E+00
  0.00000000E+00  0.00000000E+00  0.00000000E+00
  0.00000000E+00  0.00000000E+00  0.00000000E+00
  0.00000000E+00  0.00000000E+00  0.00000000E+00
  0.00000000E+00  0.00000000E+00  0.00000000E+00
  0.00000000E+00  0.00000000E+00  0.00000000E+00
  0.00000000E+00  0.00000000E+00  0.00000000E+00
  0.00000000E+00  0.00000000E+00  0.00000000E+00
  0.00000000E+00  0.00000000E+00  0.00000000E+00
  0.00000000E+00  0.00000000E+00  0.00000000E+00
  0.00000000E+00  0.00000000E+00  0.00000000E+00
  0.00000000E+00  0.00000000E+00  0.00000000E+00
  0.00000000E+00  0.00000000E+00  0.00000000E+00
  0.00000000E+00  0.00000000E+00  0.00000000E+00
  0.00000000E+00  0.00000000E+00  0.00000000E+00
  0.00000000E+00  0.00000000E+00  0.00000000E+00
  0.00000000E+00  0.00000000E+00  0.00000000E+00
  0.00000000E+00  0.00000000E+00  0.00000000E+00
  0.00000000E+00  0.00000000E+00  0.00000000E+00
  0.00000000E+00  0.00000000E+00  0.00000000E+00
  0.00000000E+00  0.00000000E+00  0.00000000E+00
  0.00000000E+00  0.00000000E+00  0.00000000E+00
  0.00000000E+00  0.00000000E+00  0.00000000E+00
  0.00000000E+00  0.00000000E+00  0.00000000E+00
  0.00000000E+00  0.00000000E+00  0.00000000E+00
  0.00000000E+00  0.00000000E+00  0.00000000E+00
  0.00000000E+00  0.00000000E+00  0.00000000E+00
  0.00000000E+00  0.00000000E+00  0.00000000E+00
  0.00000000E+00  0.00000000E+00  0.00000000E+00
  0.00000000E+00  0.00000000E+00  0.00000000E+00
  0.00000000E+00  0.00000000E+00  0.00000000E+00
  0.00000000E+00  0.00000000E+00  0.00000000E+00
  0.00000000E+00  0.00000000E+00  0.00000000E+00
  0.00000000E+00  0.00000000E+00  0.00000000E+00
  0.00000000E+00  0.00000000E+00  0.00000000E+00
  0.00000000E+00  0.00000000E+00  0.00000000E+00
  0.00000000E+00  0.00000000E+00  0.00000000E+00
  0.00000000E+00  0.00000000E+00  0.00000000E+00
  0.00000000E+00  0.00000000E+00  0.00000000E+00
  0.00000000E+00  0.00000000E+00  0.00000000E+00
  0.00000000E+00  0.00000000E+00  0.00000000E+00
  0.00000000E+00  0.00000000E+00  0.00000000E+00
  0.00000000E+00  0.00000000E+00  0.00000000E+00
  0.00000000E+00  0.00000000E+00  0.00000000E+00
  0.00000000E+00  0.00000000E+00  0.00000000E+00
  0.00000000E+00  0.00000000E+00  0.00000000E+00
  0.00000000E+00  0.00000000E+00  0.00000000E+00
  0.00000000E+00  0.00000000E+00  0.00000000E+00
  0.00000000E+00  0.00000000E+00  0.00000000E+00
  0.00000000E+00  0.00000000E+00  0.00000000E+00
  0.00000000E+00  0.00000000E+00  0.00000000E+00
  0.00000000E+00  0.00000000E+00  0.00000000E+00
  0.00000000E+00  0.00000000E+00  0.00000000E+00
  0.00000000E+00  0.00000000E+00  0.00000000E+00
  0.00000000E+00  0.00000000E+00  0.00000000E+00
  0.00000000E+00  0.00000000E+00  0.00000000E+00
  0.00000000E+00  0.00000000E+00  0.00000000E+00
  0.00000000E+00  0.00000000E+00  0.00000000E+00
  0.00000000E+00  0.00000000E+00  0.00000000E+00
  0.00000000E+00  0.00000000E+00  0.00000000E+00
  0.00000000E+00  0.00000000E+00  0.00000000E+00
  0.00000000E+00  0.00000000E+00  0.00000000E+00
  0.00000000E+00  0.00000000E+00  0.00000000E+00
  0.00000000E+00  0.00000000E+00  0.00000000E+00
  0.00000000E+00  0.00000000E+00  0.00000000E+00
  0.00000000E+00  0.00000000E+00  0.00000000E+00
  0.00000000E+00  0.00000000E+00  0.00000000E+00
  0.00000000E+00  0.00000000E+00  0.00000000E+00
  0.00000000E+00  0.00000000E+00  0.00000000E+00
  0.00000000E+00  0.00000000E+00  0.00000000E+00
  0.00000000E+00  0.00000000E+00  0.00000000E+00
  0.00000000E+00  0.00000000E+00  0.00000000E+00
  0.00000000E+00  0.00000000E+00  0.00000000E+00
  0.00000000E+00  0.00000000E+00  0.00000000E+00
  0.00000000E+00  0.00000000E+00  0.00000000E+00
  0.00000000E+00  0.00000000E+00  0.00000000E+00
  0.00000000E+00  0.00000000E+00  0.00000000E+00
  0.00000000E+00  0.00000000E+00  0.00000000E+00
  0.00000000E+00  0.00000000E+00  0.00000000E+00
  0.00000000E+00  0.00000000E+00  0.00000000E+00
  0.00000000E+00  0.00000000E+00  0.00000000E+00
  0.00000000E+00  0.00000000E+00  0.00000000E+00
  0.00000000E+00  0.00000000E+00  0.00000000E+00
  0.00000000E+00  0.00000000E+00  0.00000000E+00
  0.00000000E+00  0.00000000E+00  0.00000000E+00
  0.00000000E+00  0.00000000E+00  0.00000000E+00
  0.00000000E+00  0.00000000E+00  0.00000000E+00
  0.00000000E+00  0.00000000E+00  0.00000000E+00
  0.00000000E+00  0.00000000E+00  0.00000000E+00
  0.00000000E+00  0.00000000E+00  0.00000000E+00
  0.00000000E+00  0.00000000E+00  0.00000000E+00
  0.00000000E+00  0.00000000E+00  0.00000000E+00
  0.00000000E+00  0.00000000E+00  0.00000000E+00
  0.00000000E+00  0.00000000E+00  0.00000000E+00
  0.00000000E+00  0.00000000E+00  0.00000000E+00
  0.00000000E+00  0.00000000E+00  0.00000000E+00
  0.00000000E+00  0.00000000E+00  0.00000000E+00
  0.00000000E+00  0.00000000E+00  0.00000000E+00
  0.00000000E+00  0.00000000E+00  0.00000000E+00
  0.00000000E+00  0.00000000E+00  0.00000000E+00
  0.00000000E+00  0.00000000E+00  0.00000000E+00
  0.00000000E+00  0.00000000E+00  0.00000000E+00
  0.00000000E+00  0.00000000E+00  0.00000000E+00
  0.00000000E+00  0.00000000E+00  0.00000000E+00
  0.00000000E+00  0.00000000E+00  0.00000000E+00
  0.00000000E+00  0.00000000E+00  0.00000000E+00
  0.00000000E+00  0.00000000E+00  0.00000000E+00
  0.00000000E+00  0.00000000E+00  0.00000000E+00
  0.00000000E+00  0.00000000E+00  0.00000000E+00
  0.00000000E+00  0.00000000E+00  0.00000000E+00
  0.00000000E+00  0.00000000E+00  0.00000000E+00
  0.00000000E+00  0.00000000E+00  0.00000000E+00
  0.00000000E+00  0.00000000E+00  0.00000000E+00
  0.00000000E+00  0.00000000E+00  0.00000000E+00
  0.00000000E+00  0.00000000E+00  0.00000000E+00
  0.00000000E+00  0.00000000E+00  0.00000000E+00
  0.00000000E+00  0.00000000E+00  0.00000000E+00
  0.00000000E+00  0.00000000E+00  0.00000000E+00
  0.00000000E+00  0.00000000E+00  0.00000000E+00
  0.00000000E+00  0.00000000E+00  0.00000000E+00
  0.00000000E+00  0.00000000E+00  0.00000000E+00
  0.00000000E+00  0.00000000E+00  0.00000000E+00
  0.00000000E+00  0.00000000E+00  0.00000000E+00
  0.00000000E+00  0.00000000E+00  0.00000000E+00
  0.00000000E+00  0.00000000E+00  0.00000000E+00
  0.00000000E+00  0.00000000E+00  0.00000000E+00
  0.00000000E+00  0.00000000E+00  0.00000000E+00
  0.00000000E+00  0.00000000E+00  0.00000000E+00
  0.00000000E+00  0.00000000E+00  0.00000000E+00
  0.00000000E+00  0.00000000E+00  0.00000000E+00
  0.00000000E+00  0.00000000E+00  0.00000000E+00
  0.00000000E+00  0.00000000E+00  0.00000000E+00
  0.00000000E+00  0.00000000E+00  0.00000000E+00
  0.00000000E+00  0.00000000E+00  0.00000000E+00
  0.00000000E+00  0.00000000E+00  0.00000000E+00
  0.00000000E+00  0.00000000E+00  0.00000000E+00
  0.00000000E+00  0.00000000E+00  0.00000000E+00
  0.00000000E+00  0.00000000E+00  0.00000000E+00
  0.00000000E+00  0.00000000E+00  0.00000000E+00
  0.00000000E+00  0.00000000E+00  0.00000000E+00
  0.00000000E+00  0.00000000E+00  0.00000000E+00
  0.00000000E+00  0.00000000E+00  0.00000000E+00
  0.00000000E+00  0.00000000E+00  0.00000000E+00
  0.00000000E+00  0.00000000E+00  0.00000000E+00
  0.00000000E+00  0.00000000E+00  0.00000000E+00
  0.00000000E+00  0.00000000E+00  0.00000000E+00
  0.00000000E+00  0.00000000E+00  0.00000000E+00
  0.00000000E+00  0.00000000E+00  0.00000000E+00
  0.00000000E+00  0.00000000E+00  0.00000000E+00
  0.00000000E+00  0.00000000E+00  0.00000000E+00
  0.00000000E+00  0.00000000E+00  0.00000000E+00
  0.00000000E+00  0.00000000E+00  0.00000000E+00
  0.00000000E+00  0.00000000E+00  0.00000000E+00
  0.00000000E+00  0.00000000E+00  0.00000000E+00
  0.00000000E+00  0.00000000E+00  0.00000000E+00
  0.00000000E+00  0.00000000E+00  0.00000000E+00
  0.00000000E+00  0.00000000E+00  0.00000000E+00
  0.00000000E+00  0.00000000E+00  0.00000000E+00
  0.00000000E+00  0.00000000E+00  0.00000000E+00
  0.00000000E+00  0.00000000E+00  0.00000000E+00
  0.00000000E+00  0.00000000E+00  0.00000000E+00
  0.00000000E+00  0.00000000E+00  0.00000000E+00
  0.00000000E+00  0.00000000E+00  0.00000000E+00
  0.00000000E+00  0.00000000E+00  0.00000000E+00
  0.00000000E+00  0.00000000E+00  0.00000000E+00
  0.00000000E+00  0.00000000E+00  0.00000000E+00
  0.00000000E+00  0.00000000E+00  0.00000000E+00
  0.00000000E+00  0.00000000E+00  0.00000000E+00
  0.00000000E+00  0.00000000E+00  0.00000000E+00
  0.00000000E+00  0.00000000E+00  0.00000000E+00
  0.00000000E+00  0.00000000E+00  0.00000000E+00
  0.00000000E+00  0.00000000E+00  0.00000000E+00
  0.00000000E+00  0.00000000E+00  0.00000000E+00
  0.00000000E+00  0.00000000E+00  0.00000000E+00
  0.00000000E+00  0.00000000E+00  0.00000000E+00
  0.00000000E+00  0.00000000E+00  0.00000000E+00
  0.00000000E+00  0.00000000E+00  0.00000000E+00
  0.00000000E+00  0.00000000E+00  0.00000000E+00
  0.00000000E+00  0.00000000E+00  0.00000000E+00
  0.00000000E+00  0.00000000E+00  0.00000000E+00
  0.00000000E+00  0.00000000E+00  0.00000000E+00
  0.00000000E+00  0.00000000E+00  0.00000000E+00
  0.00000000E+00  0.00000000E+00  0.00000000E+00
  0.00000000E+00  0.00000000E+00  0.00000000E+00
  0.00000000E+00  0.00000000E+00  0.00000000E+00
  0.00000000E+00  0.00000000E+00  0.00000000E+00
  0.00000000E+00  0.00000000E+00  0.00000000E+00
  0.00000000E+00  0.00000000E+00  0.00000000E+00
  0.00000000E+00  0.00000000E+00  0.00000000E+00
  0.00000000E+00  0.00000000E+00  0.00000000E+00
  0.00000000E+00  0.00000000E+00  0.00000000E+00
  0.00000000E+00  0.00000000E+00  0.00000000E+00
  0.00000000E+00  0.00000000E+00  0.00000000E+00
  0.00000000E+00  0.00000000E+00  0.00000000E+00
  0.00000000E+00  0.00000000E+00  0.00000000E+00
  0.00000000E+00  0.00000000E+00  0.00000000E+00
  0.00000000E+00  0.00000000E+00  0.00000000E+00
  0.00000000E+00  0.00000000E+00  0.00000000E+00
  0.00000000E+00  0.00000000E+00  0.00000000E+00
  0.00000000E+00  0.00000000E+00  0.00000000E+00
  0.00000000E+00  0.00000000E+00  0.00000000E+00
