In6 Ga48 Cu30 Ag24 Se108                
   1.0000000000000000     
    15.9636537975441719   -0.0015317700896622   -7.2821546920235170
    -3.3051139143233024   15.5968100374971090   -7.2604664960910519
     0.0039325034712007    0.0039191380900522   21.1271543526118251
   In   Ga   Cu   Ag   Se
     6    48    30    24   108
Direct
  0.1665404545887910  0.5020403516159178  0.0000471775608730
  0.8332824457523316  0.1629986803845327  0.3340753640920298
  0.2517943556072950  0.4178699477689136  0.1715354285809596
  0.2481228843302858  0.0854316499860985  0.1702061063721487
  0.5849016419137314  0.0777909155470695  0.4985148842523444
  0.2435760951138661  0.0846798757151035  0.8340764787892851
  0.5009667083330882  0.5083075280027956  0.9999570364115371
  0.8315288625620454  0.5011969217317542  0.0008295202647517
  0.1673618487890565  0.8298452438379300  0.9986999519044630
  0.5012963615354664  0.8250427422812336  0.9991281651535004
  0.8326555573901544  0.8318363570193199  0.9982076757733580
  0.1620351273419445  0.1665332467237874  0.9999508499301797
  0.5055169468983962  0.1699674600723000  0.0040374715628531
  0.8357165629262298  0.1668835782105020  0.0014355315168473
  0.1616544891026805  0.5035091177522659  0.3359992077760694
  0.5076233929622802  0.5064845074059861  0.3335149041155461
  0.8316789557185800  0.5064701483169003  0.3346230473072325
  0.1641059490228685  0.8335150446918504  0.3341533418401781
  0.5044221772478750  0.8309467660142218  0.3338917402250274
  0.8323307975461489  0.8337504837497391  0.3340099765535882
  0.1628067920546172  0.1626663087048783  0.3365944702506809
  0.5053885970649716  0.1665574879676797  0.3350038648542863
  0.1672632128605471  0.4957941672983424  0.6652232739135968
  0.4983042434232559  0.5056362832555266  0.6657664240801964
  0.8322053218727561  0.4994105168048790  0.6643635596951114
  0.1649945122749301  0.8338861642097726  0.6664365990600700
  0.5043226930734406  0.8302598428772612  0.6644884078873829
  0.8322054774905965  0.8368133504913970  0.6653005567349410
  0.1564226630181125  0.1654971590286038  0.6620801277520485
  0.5022783929981429  0.1613404309715349  0.6690730284203426
  0.8358173076535707  0.1630224441209052  0.6661141908802719
  0.5853568636115938  0.4225546086413132  0.1672359531386505
  0.9148803445467237  0.4215021723625298  0.1692594057040324
  0.2520182599684659  0.7524373312072470  0.1695049486218423
  0.5868369704516994  0.7475699448492819  0.1684490513676451
  0.9152660829368102  0.7488344510315557  0.1671320868860704
  0.5832329470215427  0.0835299091999460  0.1662153365043295
  0.9205000217365011  0.0813846524618711  0.1670113629768437
  0.2452778287671435  0.4151381385506454  0.4988739403775355
  0.5884658142165762  0.4213554303440006  0.5001882005295712
  0.9181766623420771  0.4179169350503003  0.5031792517029601
  0.2472691500481403  0.7516288236450706  0.5005893922000837
  0.5905924284385051  0.7544792681350643  0.5014442424014760
  0.9127489625673206  0.7540771692448089  0.4982670132475207
  0.2469582603225930  0.0792095297595452  0.5006102520460729
  0.9146122303446731  0.0797490345433616  0.5002833260030357
  0.2476730008194039  0.4133472424707918  0.8295443166585912
  0.5839008031812796  0.4188303162991573  0.8340748959953643
  0.9126842333727723  0.4123394497447137  0.8287611985370802
  0.2518949028366890  0.7465419074543647  0.8335589516819724
  0.5845280564422097  0.7474153547878544  0.8302621811077628
  0.9134121463746752  0.7520987483856842  0.8305181668890924
  0.5907417399471200  0.0825728469280591  0.8343208355869933
  0.9155340267692935  0.0825283736821589  0.8312826738498202
  0.3362130540921839  0.6632048534552766  0.9996785613847621
  0.6628091288253941  0.6647254339542812  0.9982835725213732
  0.9986534142506756  0.6725804074794297  0.3329573463109909
  0.6688516694444715  0.6698929587410234  0.3336365270287089
  0.0050307162318717  0.9966517600943234  0.3374073561579749
  0.3278707693350285  0.9944938830879124  0.3349830882597118
  0.6686352406374638  0.9967566649911745  0.3334079439119790
  0.9944122775794000  0.3296283304010217  0.6635974884854363
  0.3320981884532088  0.6654800746189764  0.6689333974396448
  0.6732668930131567  0.6689246492377166  0.6649370480632726
  0.9962969345930901  0.9951882762686992  0.6637293767948904
  0.6693940533669291  0.9995494073666222  0.6699082944563344
  0.0793926395755946  0.5863328252590279  0.1735449184340183
  0.4203602311668178  0.5887803131535492  0.1675914718531217
  0.7507682394181501  0.5874367512857148  0.1694312620363050
  0.0821326079990854  0.9159882691487624  0.1709625678152165
  0.0787099681203642  0.2561107558381508  0.1698083302276601
  0.4222908308734930  0.2523202877555164  0.1671384921519490
  0.7515072489194381  0.2526168448054094  0.1651166883538338
  0.7491771716434954  0.5850276418061426  0.4993273793206683
  0.0761226875328518  0.9134557297804946  0.4974944705437423
  0.4176054981982418  0.9188102540939198  0.4998982421221712
  0.7516292092013401  0.9157426234902246  0.5003631368243404
  0.0818034367634581  0.2457412602868914  0.5015075143382433
  0.7564901769970120  0.2503025072297405  0.5030854236601314
  0.4162854619067602  0.5855241037414629  0.8341666676856434
  0.0766433214708329  0.9146359108363242  0.8294159293118071
  0.7502140342813064  0.9157700820732373  0.8300889883910045
  0.0770856958750414  0.2463702376821928  0.8266322100955747
  0.7498455219249820  0.2456400017973053  0.8295844221963691
  0.9943864776764428  0.3327671452623164  0.9965448446833065
  0.3348882084847062  0.3443842952225609  0.0067410193272650
  0.6672344354509221  0.3334880405736769  0.9977477716205740
  0.0021766969283377  0.6714079430226860  0.0066422152513042
  0.0003518269863250  0.9953245556367705  0.9977501105164279
  0.3365818663280535  0.9994198983739651  0.9971329529260373
  0.6735269539950437  0.9979557763300519  0.0027934092899926
  0.9950073490838847  0.3294058546535368  0.3285381540361101
  0.3359207096651815  0.3322979678399989  0.3362746038050872
  0.6675954211588504  0.3337542451651032  0.3349774715676759
  0.3345228460199507  0.6739925077179549  0.3346148498991681
  0.3375246807677570  0.3375102317653074  0.6667133642408984
  0.6578294016697868  0.3284511347778860  0.6634121282664083
  0.9995284000942632  0.6767348312739827  0.6670234795805285
  0.3301739122788305  0.9940935787375480  0.6560635525001572
  0.4225900683476738  0.9143389063934677  0.1708957182064381
  0.7536068138706398  0.9127046109179489  0.1639912803889629
  0.0795264094874639  0.5918018003378336  0.5031255618602373
  0.4179213414346066  0.5854378688945303  0.5024505168907396
  0.4203181504399467  0.2452171273541168  0.5007253329958985
  0.0846413106371955  0.5823388140031938  0.8276395800213692
  0.7466663149906552  0.5824196544736324  0.8310856594871296
  0.4218336229445612  0.9158857988985716  0.8315127093535537
  0.4153683914639643  0.2470970637166943  0.8316981352488924
  0.1214684437390758  0.4684482814701312  0.0913680874116523
  0.4666715042647027  0.4715973730172962  0.0878174686715738
  0.7957765043003846  0.4676600189323636  0.0892390069122797
  0.1328081799837619  0.8010603122799722  0.0905233006945423
  0.4620213441978862  0.7804366281182809  0.0801068885975624
  0.7913853269990696  0.7790284891173087  0.0742081289171352
  0.1199187846340948  0.1377113618747003  0.0866565132992889
  0.4647339667679447  0.1316313086340557  0.0876588256482691
  0.8007732100998624  0.1323883620698041  0.0903027029570111
  0.1269624323564429  0.4605055538483995  0.4185548881146417
  0.4697367725140893  0.4616000498182373  0.4148238485713378
  0.7993095898340030  0.4677844786660259  0.4230883873836149
  0.1219239952320521  0.7936979251218190  0.4181595965814608
  0.4691354510264460  0.8013546918167833  0.4238838964237530
  0.7891490358480979  0.7939848215947620  0.4160616785597213
  0.1223654474563247  0.1231193646680708  0.4202961281850648
  0.4521084460007927  0.1136295031877168  0.4039306356736319
  0.7875056267581684  0.1200616164980417  0.4214469065194422
  0.1233569182481844  0.4467554151371047  0.7413933455238606
  0.4666597269517609  0.4689173687347861  0.7550797229932371
  0.7947958441755745  0.4550632848637548  0.7452989939630825
  0.1341306437105345  0.8008004068504206  0.7575248048478471
  0.4603367405595051  0.7819517826203537  0.7421346902441357
  0.7912203826209421  0.7948219336622913  0.7482260670000898
  0.1109422486831733  0.1236919345126708  0.7415098976473828
  0.4668591807673863  0.1195942694599310  0.7514208444147101
  0.7907935535293262  0.1237514685953016  0.7482249258656708
  0.3003030291189717  0.6332172570174279  0.0885384113694343
  0.6298925582954880  0.6272680433765032  0.0847613780863128
  0.9569896662480346  0.6222757110736552  0.0894796710411896
  0.2872537419691099  0.9525390445065867  0.0805421366012453
  0.6157859162222863  0.9548941617687277  0.0824841266870493
  0.9577375856833186  0.9528015516570392  0.0869673581904706
  0.2918094940981888  0.2822865612664458  0.0844474681759593
  0.6262653457946570  0.2945489872070155  0.0889640838520265
  0.9555917344447238  0.2938895093225113  0.0896619090237394
  0.2820728467862992  0.6265152917616632  0.4161345709996738
  0.6317264771985833  0.6297528975328746  0.4173546271883026
  0.9513258004782585  0.6327719611035505  0.4117368932765686
  0.2910121811907445  0.9558825340352186  0.4190866275334031
  0.6310350815963659  0.9487893334534689  0.4112333898309899
  0.9568053631543947  0.9570847824252553  0.4158759834716719
  0.2821847401090167  0.2882355181672978  0.4184473566330453
  0.6292775412920193  0.2899436533574402  0.4260513438141729
  0.9629156091690660  0.2950776231381269  0.4264455993106537
  0.2914562694952210  0.6217453133938946  0.7490888922577241
  0.6206972005238995  0.6278517477251739  0.7406434402065472
  0.9484205318201759  0.6264706166542027  0.7473070449953454
  0.2855075439196213  0.9547786095792858  0.7452755131638042
  0.6277729830679846  0.9559296330324756  0.7499704395989326
  0.9581214610789530  0.9577164354623235  0.7485129890943512
  0.2806905758645897  0.2864354494787378  0.7450581815824080
  0.6221208299445138  0.2879845047498009  0.7552505877075006
  0.9572346229969568  0.2895347292187793  0.7477165566647486
  0.1987555273597650  0.3772610084109544  0.2553801764782264
  0.5380743058142130  0.3798032367038005  0.2451990426156954
  0.8659366264986090  0.3808420019416374  0.2475099177536748
  0.1981295218178545  0.7100217899180450  0.2451497320856646
  0.5443830326954711  0.7067664891721748  0.2508726764512943
  0.8733513651319456  0.7097877240423642  0.2508361690806709
  0.2051599036112322  0.0372608681518969  0.2575125003594891
  0.5534380176546705  0.0472093399699176  0.2561319337480796
  0.8885718850981377  0.0387160951541716  0.2521724863589583
  0.1997158577147999  0.3716463511347925  0.5768998782007415
  0.5387025760552859  0.3864640713252427  0.5805178990264821
  0.8747345359879901  0.3745968900024010  0.5835294911437572
  0.2165270785811231  0.7161759412650497  0.5907934763207194
  0.5538603165378220  0.7131546709671923  0.5854570417229752
  0.8655201000200066  0.7125797181136519  0.5767855699661411
  0.1942334562054526  0.0400518398971528  0.5771490764723382
  0.5429878527234280  0.0363027264448377  0.5890223181840994
  0.8746174689602668  0.0365163797535644  0.5828106293108064
  0.2002011596595139  0.3673623444241443  0.9054536925321486
  0.5384131728018531  0.3851704817275490  0.9161702519255286
  0.8624111989015759  0.3756267852867481  0.9087969550950064
  0.2172948619129755  0.7100620202674719  0.9217002672250132
  0.5437490894392170  0.7045072044367728  0.9141773084515421
  0.8758394743013724  0.7156436965203525  0.9152380537657621
  0.1948409946147791  0.0381463914147417  0.9173378352910788
  0.5473417915031007  0.0511697192918703  0.9192800596443078
  0.8689551144693297  0.0418514292859697  0.9115417136097150
  0.0385729191501838  0.5462496259569605  0.2544157714267072
  0.3858047333074168  0.5466176083761312  0.2506952387326535
  0.7083682482200473  0.5475930634743591  0.2509448451390881
  0.0397793809470457  0.8744166784983349  0.2511055578755830
  0.3756996673202195  0.8741028569123017  0.2593387965985627
  0.7071603680935681  0.8733003395986429  0.2530139311556425
  0.0454279257402632  0.2003828365733256  0.2462311321296440
  0.3881904959085603  0.2087906105349617  0.2498946779587783
  0.7069560258256047  0.2039607493443469  0.2396813146370462
  0.0423842660336433  0.5374407097768312  0.5878656599835992
  0.3674934144932465  0.5400196931198948  0.5861330027851253
  0.7115685377589642  0.5450755849103572  0.5826756257411603
  0.0396510444636391  0.8751207756787380  0.5828108111606198
  0.3797063706419976  0.8642358433321391  0.5747289294258735
  0.7108444138337617  0.8815895415589807  0.5847184751115577
  0.0342023045455733  0.2077240418506818  0.5803073958302889
  0.3759043945566916  0.1958087084577400  0.5852270926248409
  0.7178604329298039  0.2069361508900940  0.5835586402512902
  0.0313057734094428  0.5363578214738425  0.9094220458582214
  0.3716485326364918  0.5414891059311344  0.9131629468725251
  0.7060548299567699  0.5420318911236279  0.9212437258762307
  0.0445169006181061  0.8657103598530185  0.9096163359522507
  0.3790342631686983  0.8629338197041747  0.9151587809303621
  0.7110823823009156  0.8683772003755124  0.9096175917672937
  0.0416113082876777  0.2040192581631572  0.9101212090606623
  0.3809294020236891  0.2087345737710251  0.9252600517739253
  0.7146378475071700  0.2040797566570376  0.9130326128741402

  0.00000000E+00  0.00000000E+00  0.00000000E+00
  0.00000000E+00  0.00000000E+00  0.00000000E+00
  0.00000000E+00  0.00000000E+00  0.00000000E+00
  0.00000000E+00  0.00000000E+00  0.00000000E+00
  0.00000000E+00  0.00000000E+00  0.00000000E+00
  0.00000000E+00  0.00000000E+00  0.00000000E+00
  0.00000000E+00  0.00000000E+00  0.00000000E+00
  0.00000000E+00  0.00000000E+00  0.00000000E+00
  0.00000000E+00  0.00000000E+00  0.00000000E+00
  0.00000000E+00  0.00000000E+00  0.00000000E+00
  0.00000000E+00  0.00000000E+00  0.00000000E+00
  0.00000000E+00  0.00000000E+00  0.00000000E+00
  0.00000000E+00  0.00000000E+00  0.00000000E+00
  0.00000000E+00  0.00000000E+00  0.00000000E+00
  0.00000000E+00  0.00000000E+00  0.00000000E+00
  0.00000000E+00  0.00000000E+00  0.00000000E+00
  0.00000000E+00  0.00000000E+00  0.00000000E+00
  0.00000000E+00  0.00000000E+00  0.00000000E+00
  0.00000000E+00  0.00000000E+00  0.00000000E+00
  0.00000000E+00  0.00000000E+00  0.00000000E+00
  0.00000000E+00  0.00000000E+00  0.00000000E+00
  0.00000000E+00  0.00000000E+00  0.00000000E+00
  0.00000000E+00  0.00000000E+00  0.00000000E+00
  0.00000000E+00  0.00000000E+00  0.00000000E+00
  0.00000000E+00  0.00000000E+00  0.00000000E+00
  0.00000000E+00  0.00000000E+00  0.00000000E+00
  0.00000000E+00  0.00000000E+00  0.00000000E+00
  0.00000000E+00  0.00000000E+00  0.00000000E+00
  0.00000000E+00  0.00000000E+00  0.00000000E+00
  0.00000000E+00  0.00000000E+00  0.00000000E+00
  0.00000000E+00  0.00000000E+00  0.00000000E+00
  0.00000000E+00  0.00000000E+00  0.00000000E+00
  0.00000000E+00  0.00000000E+00  0.00000000E+00
  0.00000000E+00  0.00000000E+00  0.00000000E+00
  0.00000000E+00  0.00000000E+00  0.00000000E+00
  0.00000000E+00  0.00000000E+00  0.00000000E+00
  0.00000000E+00  0.00000000E+00  0.00000000E+00
  0.00000000E+00  0.00000000E+00  0.00000000E+00
  0.00000000E+00  0.00000000E+00  0.00000000E+00
  0.00000000E+00  0.00000000E+00  0.00000000E+00
  0.00000000E+00  0.00000000E+00  0.00000000E+00
  0.00000000E+00  0.00000000E+00  0.00000000E+00
  0.00000000E+00  0.00000000E+00  0.00000000E+00
  0.00000000E+00  0.00000000E+00  0.00000000E+00
  0.00000000E+00  0.00000000E+00  0.00000000E+00
  0.00000000E+00  0.00000000E+00  0.00000000E+00
  0.00000000E+00  0.00000000E+00  0.00000000E+00
  0.00000000E+00  0.00000000E+00  0.00000000E+00
  0.00000000E+00  0.00000000E+00  0.00000000E+00
  0.00000000E+00  0.00000000E+00  0.00000000E+00
  0.00000000E+00  0.00000000E+00  0.00000000E+00
  0.00000000E+00  0.00000000E+00  0.00000000E+00
  0.00000000E+00  0.00000000E+00  0.00000000E+00
  0.00000000E+00  0.00000000E+00  0.00000000E+00
  0.00000000E+00  0.00000000E+00  0.00000000E+00
  0.00000000E+00  0.00000000E+00  0.00000000E+00
  0.00000000E+00  0.00000000E+00  0.00000000E+00
  0.00000000E+00  0.00000000E+00  0.00000000E+00
  0.00000000E+00  0.00000000E+00  0.00000000E+00
  0.00000000E+00  0.00000000E+00  0.00000000E+00
  0.00000000E+00  0.00000000E+00  0.00000000E+00
  0.00000000E+00  0.00000000E+00  0.00000000E+00
  0.00000000E+00  0.00000000E+00  0.00000000E+00
  0.00000000E+00  0.00000000E+00  0.00000000E+00
  0.00000000E+00  0.00000000E+00  0.00000000E+00
  0.00000000E+00  0.00000000E+00  0.00000000E+00
  0.00000000E+00  0.00000000E+00  0.00000000E+00
  0.00000000E+00  0.00000000E+00  0.00000000E+00
  0.00000000E+00  0.00000000E+00  0.00000000E+00
  0.00000000E+00  0.00000000E+00  0.00000000E+00
  0.00000000E+00  0.00000000E+00  0.00000000E+00
  0.00000000E+00  0.00000000E+00  0.00000000E+00
  0.00000000E+00  0.00000000E+00  0.00000000E+00
  0.00000000E+00  0.00000000E+00  0.00000000E+00
  0.00000000E+00  0.00000000E+00  0.00000000E+00
  0.00000000E+00  0.00000000E+00  0.00000000E+00
  0.00000000E+00  0.00000000E+00  0.00000000E+00
  0.00000000E+00  0.00000000E+00  0.00000000E+00
  0.00000000E+00  0.00000000E+00  0.00000000E+00
  0.00000000E+00  0.00000000E+00  0.00000000E+00
  0.00000000E+00  0.00000000E+00  0.00000000E+00
  0.00000000E+00  0.00000000E+00  0.00000000E+00
  0.00000000E+00  0.00000000E+00  0.00000000E+00
  0.00000000E+00  0.00000000E+00  0.00000000E+00
  0.00000000E+00  0.00000000E+00  0.00000000E+00
  0.00000000E+00  0.00000000E+00  0.00000000E+00
  0.00000000E+00  0.00000000E+00  0.00000000E+00
  0.00000000E+00  0.00000000E+00  0.00000000E+00
  0.00000000E+00  0.00000000E+00  0.00000000E+00
  0.00000000E+00  0.00000000E+00  0.00000000E+00
  0.00000000E+00  0.00000000E+00  0.00000000E+00
  0.00000000E+00  0.00000000E+00  0.00000000E+00
  0.00000000E+00  0.00000000E+00  0.00000000E+00
  0.00000000E+00  0.00000000E+00  0.00000000E+00
  0.00000000E+00  0.00000000E+00  0.00000000E+00
  0.00000000E+00  0.00000000E+00  0.00000000E+00
  0.00000000E+00  0.00000000E+00  0.00000000E+00
  0.00000000E+00  0.00000000E+00  0.00000000E+00
  0.00000000E+00  0.00000000E+00  0.00000000E+00
  0.00000000E+00  0.00000000E+00  0.00000000E+00
  0.00000000E+00  0.00000000E+00  0.00000000E+00
  0.00000000E+00  0.00000000E+00  0.00000000E+00
  0.00000000E+00  0.00000000E+00  0.00000000E+00
  0.00000000E+00  0.00000000E+00  0.00000000E+00
  0.00000000E+00  0.00000000E+00  0.00000000E+00
  0.00000000E+00  0.00000000E+00  0.00000000E+00
  0.00000000E+00  0.00000000E+00  0.00000000E+00
  0.00000000E+00  0.00000000E+00  0.00000000E+00
  0.00000000E+00  0.00000000E+00  0.00000000E+00
  0.00000000E+00  0.00000000E+00  0.00000000E+00
  0.00000000E+00  0.00000000E+00  0.00000000E+00
  0.00000000E+00  0.00000000E+00  0.00000000E+00
  0.00000000E+00  0.00000000E+00  0.00000000E+00
  0.00000000E+00  0.00000000E+00  0.00000000E+00
  0.00000000E+00  0.00000000E+00  0.00000000E+00
  0.00000000E+00  0.00000000E+00  0.00000000E+00
  0.00000000E+00  0.00000000E+00  0.00000000E+00
  0.00000000E+00  0.00000000E+00  0.00000000E+00
  0.00000000E+00  0.00000000E+00  0.00000000E+00
  0.00000000E+00  0.00000000E+00  0.00000000E+00
  0.00000000E+00  0.00000000E+00  0.00000000E+00
  0.00000000E+00  0.00000000E+00  0.00000000E+00
  0.00000000E+00  0.00000000E+00  0.00000000E+00
  0.00000000E+00  0.00000000E+00  0.00000000E+00
  0.00000000E+00  0.00000000E+00  0.00000000E+00
  0.00000000E+00  0.00000000E+00  0.00000000E+00
  0.00000000E+00  0.00000000E+00  0.00000000E+00
  0.00000000E+00  0.00000000E+00  0.00000000E+00
  0.00000000E+00  0.00000000E+00  0.00000000E+00
  0.00000000E+00  0.00000000E+00  0.00000000E+00
  0.00000000E+00  0.00000000E+00  0.00000000E+00
  0.00000000E+00  0.00000000E+00  0.00000000E+00
  0.00000000E+00  0.00000000E+00  0.00000000E+00
  0.00000000E+00  0.00000000E+00  0.00000000E+00
  0.00000000E+00  0.00000000E+00  0.00000000E+00
  0.00000000E+00  0.00000000E+00  0.00000000E+00
  0.00000000E+00  0.00000000E+00  0.00000000E+00
  0.00000000E+00  0.00000000E+00  0.00000000E+00
  0.00000000E+00  0.00000000E+00  0.00000000E+00
  0.00000000E+00  0.00000000E+00  0.00000000E+00
  0.00000000E+00  0.00000000E+00  0.00000000E+00
  0.00000000E+00  0.00000000E+00  0.00000000E+00
  0.00000000E+00  0.00000000E+00  0.00000000E+00
  0.00000000E+00  0.00000000E+00  0.00000000E+00
  0.00000000E+00  0.00000000E+00  0.00000000E+00
  0.00000000E+00  0.00000000E+00  0.00000000E+00
  0.00000000E+00  0.00000000E+00  0.00000000E+00
  0.00000000E+00  0.00000000E+00  0.00000000E+00
  0.00000000E+00  0.00000000E+00  0.00000000E+00
  0.00000000E+00  0.00000000E+00  0.00000000E+00
  0.00000000E+00  0.00000000E+00  0.00000000E+00
  0.00000000E+00  0.00000000E+00  0.00000000E+00
  0.00000000E+00  0.00000000E+00  0.00000000E+00
  0.00000000E+00  0.00000000E+00  0.00000000E+00
  0.00000000E+00  0.00000000E+00  0.00000000E+00
  0.00000000E+00  0.00000000E+00  0.00000000E+00
  0.00000000E+00  0.00000000E+00  0.00000000E+00
  0.00000000E+00  0.00000000E+00  0.00000000E+00
  0.00000000E+00  0.00000000E+00  0.00000000E+00
  0.00000000E+00  0.00000000E+00  0.00000000E+00
  0.00000000E+00  0.00000000E+00  0.00000000E+00
  0.00000000E+00  0.00000000E+00  0.00000000E+00
  0.00000000E+00  0.00000000E+00  0.00000000E+00
  0.00000000E+00  0.00000000E+00  0.00000000E+00
  0.00000000E+00  0.00000000E+00  0.00000000E+00
  0.00000000E+00  0.00000000E+00  0.00000000E+00
  0.00000000E+00  0.00000000E+00  0.00000000E+00
  0.00000000E+00  0.00000000E+00  0.00000000E+00
  0.00000000E+00  0.00000000E+00  0.00000000E+00
  0.00000000E+00  0.00000000E+00  0.00000000E+00
  0.00000000E+00  0.00000000E+00  0.00000000E+00
  0.00000000E+00  0.00000000E+00  0.00000000E+00
  0.00000000E+00  0.00000000E+00  0.00000000E+00
  0.00000000E+00  0.00000000E+00  0.00000000E+00
  0.00000000E+00  0.00000000E+00  0.00000000E+00
  0.00000000E+00  0.00000000E+00  0.00000000E+00
  0.00000000E+00  0.00000000E+00  0.00000000E+00
  0.00000000E+00  0.00000000E+00  0.00000000E+00
  0.00000000E+00  0.00000000E+00  0.00000000E+00
  0.00000000E+00  0.00000000E+00  0.00000000E+00
  0.00000000E+00  0.00000000E+00  0.00000000E+00
  0.00000000E+00  0.00000000E+00  0.00000000E+00
  0.00000000E+00  0.00000000E+00  0.00000000E+00
  0.00000000E+00  0.00000000E+00  0.00000000E+00
  0.00000000E+00  0.00000000E+00  0.00000000E+00
  0.00000000E+00  0.00000000E+00  0.00000000E+00
  0.00000000E+00  0.00000000E+00  0.00000000E+00
  0.00000000E+00  0.00000000E+00  0.00000000E+00
  0.00000000E+00  0.00000000E+00  0.00000000E+00
  0.00000000E+00  0.00000000E+00  0.00000000E+00
  0.00000000E+00  0.00000000E+00  0.00000000E+00
  0.00000000E+00  0.00000000E+00  0.00000000E+00
  0.00000000E+00  0.00000000E+00  0.00000000E+00
  0.00000000E+00  0.00000000E+00  0.00000000E+00
  0.00000000E+00  0.00000000E+00  0.00000000E+00
  0.00000000E+00  0.00000000E+00  0.00000000E+00
  0.00000000E+00  0.00000000E+00  0.00000000E+00
  0.00000000E+00  0.00000000E+00  0.00000000E+00
  0.00000000E+00  0.00000000E+00  0.00000000E+00
  0.00000000E+00  0.00000000E+00  0.00000000E+00
  0.00000000E+00  0.00000000E+00  0.00000000E+00
  0.00000000E+00  0.00000000E+00  0.00000000E+00
  0.00000000E+00  0.00000000E+00  0.00000000E+00
  0.00000000E+00  0.00000000E+00  0.00000000E+00
  0.00000000E+00  0.00000000E+00  0.00000000E+00
  0.00000000E+00  0.00000000E+00  0.00000000E+00
  0.00000000E+00  0.00000000E+00  0.00000000E+00
  0.00000000E+00  0.00000000E+00  0.00000000E+00
  0.00000000E+00  0.00000000E+00  0.00000000E+00
  0.00000000E+00  0.00000000E+00  0.00000000E+00
  0.00000000E+00  0.00000000E+00  0.00000000E+00
  0.00000000E+00  0.00000000E+00  0.00000000E+00
  0.00000000E+00  0.00000000E+00  0.00000000E+00
  0.00000000E+00  0.00000000E+00  0.00000000E+00
  0.00000000E+00  0.00000000E+00  0.00000000E+00
  0.00000000E+00  0.00000000E+00  0.00000000E+00
