In24 Ga30 Cu54 Se108                    
   1.0000000000000000     
    15.7937961982111137    0.0014274835995154   -7.0528299168105795
    -3.1523809146288220   15.4740170816779035   -7.0585019541591949
    -0.0036243877313734   -0.0020784609324351   21.1893130921707140
   In   Ga   Cu   Se
    24    30    54   108
Direct
  0.1651928287498947  0.5014115059177939  0.0015933745772045
  0.4997639319724811  0.4999392595433960  0.9991952274081868
  0.1648225962430061  0.8302164438578075  0.9976042767009261
  0.5013307929361588  0.1636537907428206  0.9978641653615981
  0.8308842739871878  0.1636058744512709  0.9968527923780499
  0.1673857354023198  0.4993247944372570  0.3321442520809512
  0.5002396974932921  0.5001296866317517  0.3358754863623261
  0.1682552270294622  0.8334175344825923  0.3319466203318697
  0.5002370640007712  0.8348572934884047  0.3353836415640927
  0.1662113266033103  0.5029776110633151  0.6680078808557681
  0.1657812218129564  0.8323413139353590  0.6681498554249075
  0.8324851710112000  0.1670526698745505  0.6673659269466654
  0.5851188522300887  0.4177018115186328  0.1682958236375143
  0.9145021446232846  0.4188813295935887  0.1670411300904604
  0.5851326833776440  0.7517413879884671  0.1667989046630538
  0.9132522572094004  0.7512777567764388  0.1647427497777016
  0.2512862171587784  0.0850772689614701  0.1681186289967371
  0.9179147477117553  0.0823119377173853  0.1679554306302222
  0.2516489104445938  0.4145491012579967  0.5006243385612308
  0.9117475727140985  0.4157565935572833  0.4987607284035747
  0.2540931294815465  0.7513873257226038  0.5020061276486629
  0.2535016953508702  0.0849801553177514  0.5024092202724049
  0.2485343011567380  0.4137320317148721  0.8312928751928226
  0.5841451558446948  0.4156645445084095  0.8311654733665961
  0.8337422764526110  0.5000871610107964  0.9976634676048519
  0.4982624597095011  0.8353990145752590  0.9973927776653255
  0.8317121280897481  0.8333434360074605  0.9955396745053520
  0.1637920085597173  0.1647845749790022  0.9971827554252286
  0.8322342642836915  0.5018621814733564  0.3355834758986092
  0.8338780282934763  0.8376451626659644  0.3370321354488581
  0.1669488088236548  0.1664619106045748  0.3339013676133220
  0.5045494907603896  0.1677630968309884  0.3362650637239000
  0.8316105439423751  0.1643919965718226  0.3342333676177773
  0.5019833432789156  0.5031282056054778  0.6673563345707691
  0.8311855782368696  0.4996014131004287  0.6683067225944725
  0.5042770129200420  0.8355291518590775  0.6689606866280045
  0.8329011242670390  0.8339567290289693  0.6663935694222261
  0.1645705323225712  0.1630099443175510  0.6659872030962006
  0.5053763998721124  0.1655267377335150  0.6667592728640486
  0.2490849529412031  0.4115973872197003  0.1649769516481214
  0.2508327060361992  0.7512254121228850  0.1658153048142808
  0.5825881030561462  0.0820810901869322  0.1682483149386726
  0.5855227903230613  0.4165025429639542  0.5032073738878182
  0.5869002638959842  0.7527441672639981  0.5043486317945991
  0.9126913197261075  0.7504963887431302  0.4993637124797132
  0.5838440796137050  0.0852138613926670  0.5005460034745042
  0.9167289382060702  0.0831890617044309  0.4999553025596910
  0.9148653182146163  0.4186610737051453  0.8335171484357531
  0.2508720027393423  0.7511066782180009  0.8343082532482384
  0.5847198630348132  0.7510446410955822  0.8325097193956168
  0.9129289440053583  0.7500365274315755  0.8303862438778751
  0.2476845018921452  0.0839246596462218  0.8328658799106350
  0.5829181277880409  0.0806913181726330  0.8290060120393790
  0.9171940075516218  0.0791073700705880  0.8321762743201191
  0.9977893900837245  0.3295979766740516  0.9958539197093117
  0.3312464933314203  0.3277718149497062  0.0010371137784801
  0.6660393604795445  0.3327343278073300  0.9965770142413675
  0.9953040266581681  0.6673424811206345  0.9980760537293349
  0.3338431966008457  0.6704007480816898  0.9986971471801525
  0.6672266249925940  0.6702110161013053  0.9960902442227990
  0.9977150706402540  0.9965503077657942  0.9955655353090407
  0.3327295268207919  0.9996605970684129  0.9956082905512886
  0.6650958851174025  0.9953129036713193  0.9975681756202093
  0.9979873826783106  0.3296827852052644  0.3328302837649204
  0.3383093046289503  0.3331946823715697  0.3370493757450603
  0.6664772658647209  0.3294322706723847  0.3340361493428006
  0.9958283709612985  0.6699982547110466  0.3372046675610321
  0.3357925029636988  0.6652910240290382  0.3316038084903781
  0.6710160534111438  0.6693404725980727  0.3376501788309199
  0.9979312323233529  0.0032105582730964  0.3362382343876149
  0.3350534067699158  0.0016770784906797  0.3333766984297526
  0.6703384476700194  0.0061499748672347  0.3380869436566201
  0.9963095550197494  0.3283058529103826  0.6654943814406877
  0.3367683397100691  0.3328148977544529  0.6669456310934692
  0.6659293027354707  0.3354873597602577  0.6655025066654687
  0.9962237426012379  0.6697028705475887  0.6690507029317772
  0.3393785457825160  0.6699123286619297  0.6700630884061312
  0.6672730349506537  0.6642175432704036  0.6666398930570026
  0.9996923499515376  0.9993671756032327  0.6661607645774978
  0.3347341662540515  0.0036653769215604  0.6705517045769653
  0.6678050930404353  0.9989691072276159  0.6666916005308039
  0.0844079576094714  0.5823794566215170  0.1649339068454196
  0.4126087458852936  0.5839788018438057  0.1657401799198794
  0.7527579168378509  0.5849613572609016  0.1677162788519695
  0.0822700100114488  0.9164567880795644  0.1648088752970764
  0.4201160784328266  0.9203170885454313  0.1674535172321114
  0.7451162557293500  0.9185937519954095  0.1650862813995246
  0.0873730834711779  0.2480359382902222  0.1656091474024919
  0.4137767077179078  0.2458734581945592  0.1649331296544929
  0.7499587040120588  0.2499978838486925  0.1722022536733618
  0.0790366589355784  0.5846678465366821  0.4980640142399082
  0.4249042048822318  0.5879608829248042  0.5067744521084023
  0.7513049970580994  0.5865988434431060  0.5041346697085629
  0.0792481807116374  0.9185851404725653  0.5008175533591483
  0.4247392613481651  0.9175971879752396  0.5064377556063846
  0.7511026057545038  0.9173415475703450  0.5018886783009293
  0.0789694846625082  0.2460238780738919  0.5001496226522661
  0.4227682085471542  0.2490403382238924  0.5007715528234584
  0.7483678606921416  0.2506315398755561  0.4999485727376225
  0.0763530028419197  0.5837619203046671  0.8302455268263813
  0.4204499790397591  0.5894022253097972  0.8330317273714911
  0.7517605370958051  0.5851555821912271  0.8322366163058845
  0.0818296359140618  0.9198599051505312  0.8328149370484752
  0.4171078380096631  0.9142122240556816  0.8313532845676690
  0.7481135367549925  0.9118822401336928  0.8286772718887292
  0.0817382480786009  0.2454363077422599  0.8327112834620181
  0.4116744174938347  0.2416142096744451  0.8273345924247835
  0.7525778177851095  0.2500985578492561  0.8335980229421054
  0.1195402238003993  0.4522393362842436  0.0869444556932777
  0.4454543567549791  0.4566728869657908  0.0826092829843645
  0.7816123420412424  0.4607409847581962  0.0761932269550201
  0.1192803328191800  0.7882171317360189  0.0867035403341703
  0.4515005197142159  0.7961165629386642  0.0785565638054990
  0.7822094836875451  0.7981532569888472  0.0772586404165381
  0.1152428279967950  0.1226436000131343  0.0759168827634866
  0.4548252015131879  0.1215662644316993  0.0866222461159580
  0.7798550460311304  0.1238782512437311  0.0838425548715733
  0.1134356078072756  0.4575662650501044  0.4167229356849091
  0.4570109839093845  0.4579567766829129  0.4258410439375311
  0.7784554508438859  0.4611707541404044  0.4122129684792668
  0.1156390741754691  0.7938900206616140  0.4184007777035461
  0.4563775866514348  0.7891111736751455  0.4233102037846237
  0.7888641265566037  0.7946819997535002  0.4179918821056248
  0.1177692011199341  0.1270421413433453  0.4138850461144941
  0.4580253983611868  0.1242439343570254  0.4160609973248839
  0.7916892339991506  0.1288814475168536  0.4208149643902885
  0.1104005353041799  0.4565851698742804  0.7485257199790780
  0.4506316528277949  0.4630338762512523  0.7458481134615269
  0.7875568835113569  0.4583224082686002  0.7503270993610585
  0.1201269657233439  0.7906676059452735  0.7568447047803843
  0.4593818474589426  0.7928739071817859  0.7498717501252727
  0.7874360289673987  0.7891861854124187  0.7463544072848691
  0.1205760340443689  0.1229183101939881  0.7489709338829229
  0.4584377666421986  0.1238220989026857  0.7476072678188856
  0.7891779255731635  0.1213972182364529  0.7553397522650158
  0.2998092510126042  0.6332408959473526  0.0851191631064552
  0.6376863110805360  0.6262286181961727  0.0812151227415399
  0.9622368758172897  0.6192765254342376  0.0791016941779432
  0.3011450417236361  0.9581778443821278  0.0809268525541782
  0.6241695319966283  0.9591236362219320  0.0821286349455974
  0.9617859296200777  0.9515632289246838  0.0765917357452608
  0.2921338764108157  0.2865118686148378  0.0827143562238248
  0.6379777266983382  0.2916272635704757  0.0833506957681038
  0.9680103762614038  0.2909683925794155  0.0836118450565948
  0.3066277563762156  0.6240878002545642  0.4177891856176785
  0.6340341165438517  0.6328948124098019  0.4234315033793123
  0.9575595024817787  0.6264435844377019  0.4181287469735366
  0.3080898561927157  0.9578518837254819  0.4195799255368726
  0.6348333317787507  0.9662055829399705  0.4227126801032526
  0.9607056127250146  0.9603416483054801  0.4179809510622547
  0.2982859719929607  0.2827228751742936  0.4136149657925756
  0.6285145305097402  0.2930219856102951  0.4191127464901427
  0.9600180182756972  0.2836832565799483  0.4129029550575325
  0.3006152747932447  0.6340065887844446  0.7542655713160755
  0.6286992286002473  0.6260328130627855  0.7509727505531316
  0.9554823027236594  0.6250245369207903  0.7484988474534262
  0.2993893605511744  0.9648340782964979  0.7554623803032285
  0.6295713005459902  0.9580496036731105  0.7492721324125924
  0.9597306616588526  0.9573396773371030  0.7475555437318704
  0.2939331321230796  0.2818388710815611  0.7424140440618316
  0.6328750700587875  0.2852805129998899  0.7450818670989747
  0.9661884988958747  0.2980948657372409  0.7569250112941575
  0.2143597167342080  0.3643479123636766  0.2477156546548756
  0.5404594713625599  0.3621211808232161  0.2497083757848699
  0.8723284295739191  0.3721737600628856  0.2561947601987669
  0.2123682448611959  0.6990904788727406  0.2444730257976531
  0.5423909051774771  0.6968858543783227  0.2505374841848536
  0.8723733492319496  0.7089313401049893  0.2559875504430238
  0.2054087630842432  0.0369504914486143  0.2539434906430955
  0.5446070597081274  0.0403157423695433  0.2532382836620215
  0.8705916121018120  0.0366398351320001  0.2540742298973839
  0.2064053062086018  0.3625350281422257  0.5840815835074196
  0.5423859324687115  0.3751557713655274  0.5852976582007017
  0.8711106137172564  0.3707354854217115  0.5887547295599447
  0.2097310467624851  0.6962843786884818  0.5839763592924143
  0.5465202993440172  0.7095392755597700  0.5872147882017345
  0.8745617731595701  0.7083824250770547  0.5844368076783439
  0.2057386516691864  0.0353512029268259  0.5871469046340891
  0.5463121046920349  0.0399571673622816  0.5840244190451642
  0.8775042167673988  0.0346679278256019  0.5798101292186715
  0.2072528071133846  0.3631774763235498  0.9175620297085487
  0.5366880225354080  0.3605581340677446  0.9121031258510897
  0.8748236960728093  0.3725796849863414  0.9157593197759866
  0.2073694783420095  0.6966119522788219  0.9090027648818051
  0.5428815709851591  0.7102060761980269  0.9160529249500442
  0.8739610974067560  0.7075348901386747  0.9146365566121091
  0.2072258031518572  0.0395181160304077  0.9154794805368880
  0.5444201933360020  0.0306968833033423  0.9089942537022537
  0.8744135554781138  0.0293851055196583  0.9094519438699749
  0.0409595820515065  0.5572251047502377  0.2521176437038335
  0.3676496593724110  0.5414453136659745  0.2437727316137170
  0.7157718989102904  0.5521869168506726  0.2550073154901327
  0.0402710573425580  0.8882198374871635  0.2507296938264076
  0.3698716219517451  0.8806148813933845  0.2448173119739963
  0.7149666951704958  0.8870086810431275  0.2568427544988694
  0.0494828372982568  0.2167718615104377  0.2532815779907551
  0.3846840182675919  0.2165139074328124  0.2570492067023267
  0.7073334523575525  0.2079644333474775  0.2519868623636725
  0.0376661686909685  0.5539116538635653  0.5833109433978194
  0.3819459353861134  0.5509220074564780  0.5884678697706391
  0.7088304832552410  0.5429069113958462  0.5841257071990000
  0.0339566888446399  0.8769224848142656  0.5791678780729796
  0.3840690527660087  0.8864821811850661  0.5922246155898847
  0.7099926720729854  0.8790714669516220  0.5846173086043081
  0.0405171332607850  0.2085806861691424  0.5845573048530071
  0.3869902390697888  0.2172678653079032  0.5891096150292725
  0.7017532317429271  0.2136704954909234  0.5795421146406312
  0.0336184563018165  0.5475266006148303  0.9127836228299984
  0.3746654870174808  0.5526113543543900  0.9137138804677107
  0.7152287838027362  0.5508077426027782  0.9188602463827280
  0.0340879162035961  0.8765778047206538  0.9095196234697269
  0.3741908156538756  0.8778787526388001  0.9141497525841373
  0.7083262659439811  0.8772909295314477  0.9139303593385790
  0.0391799956561130  0.2068669846440301  0.9142552968295021
  0.3681805992394160  0.2108690313435417  0.9119682909903588
  0.7008633853005648  0.2109281039845072  0.9096892210914476

  0.00000000E+00  0.00000000E+00  0.00000000E+00
  0.00000000E+00  0.00000000E+00  0.00000000E+00
  0.00000000E+00  0.00000000E+00  0.00000000E+00
  0.00000000E+00  0.00000000E+00  0.00000000E+00
  0.00000000E+00  0.00000000E+00  0.00000000E+00
  0.00000000E+00  0.00000000E+00  0.00000000E+00
  0.00000000E+00  0.00000000E+00  0.00000000E+00
  0.00000000E+00  0.00000000E+00  0.00000000E+00
  0.00000000E+00  0.00000000E+00  0.00000000E+00
  0.00000000E+00  0.00000000E+00  0.00000000E+00
  0.00000000E+00  0.00000000E+00  0.00000000E+00
  0.00000000E+00  0.00000000E+00  0.00000000E+00
  0.00000000E+00  0.00000000E+00  0.00000000E+00
  0.00000000E+00  0.00000000E+00  0.00000000E+00
  0.00000000E+00  0.00000000E+00  0.00000000E+00
  0.00000000E+00  0.00000000E+00  0.00000000E+00
  0.00000000E+00  0.00000000E+00  0.00000000E+00
  0.00000000E+00  0.00000000E+00  0.00000000E+00
  0.00000000E+00  0.00000000E+00  0.00000000E+00
  0.00000000E+00  0.00000000E+00  0.00000000E+00
  0.00000000E+00  0.00000000E+00  0.00000000E+00
  0.00000000E+00  0.00000000E+00  0.00000000E+00
  0.00000000E+00  0.00000000E+00  0.00000000E+00
  0.00000000E+00  0.00000000E+00  0.00000000E+00
  0.00000000E+00  0.00000000E+00  0.00000000E+00
  0.00000000E+00  0.00000000E+00  0.00000000E+00
  0.00000000E+00  0.00000000E+00  0.00000000E+00
  0.00000000E+00  0.00000000E+00  0.00000000E+00
  0.00000000E+00  0.00000000E+00  0.00000000E+00
  0.00000000E+00  0.00000000E+00  0.00000000E+00
  0.00000000E+00  0.00000000E+00  0.00000000E+00
  0.00000000E+00  0.00000000E+00  0.00000000E+00
  0.00000000E+00  0.00000000E+00  0.00000000E+00
  0.00000000E+00  0.00000000E+00  0.00000000E+00
  0.00000000E+00  0.00000000E+00  0.00000000E+00
  0.00000000E+00  0.00000000E+00  0.00000000E+00
  0.00000000E+00  0.00000000E+00  0.00000000E+00
  0.00000000E+00  0.00000000E+00  0.00000000E+00
  0.00000000E+00  0.00000000E+00  0.00000000E+00
  0.00000000E+00  0.00000000E+00  0.00000000E+00
  0.00000000E+00  0.00000000E+00  0.00000000E+00
  0.00000000E+00  0.00000000E+00  0.00000000E+00
  0.00000000E+00  0.00000000E+00  0.00000000E+00
  0.00000000E+00  0.00000000E+00  0.00000000E+00
  0.00000000E+00  0.00000000E+00  0.00000000E+00
  0.00000000E+00  0.00000000E+00  0.00000000E+00
  0.00000000E+00  0.00000000E+00  0.00000000E+00
  0.00000000E+00  0.00000000E+00  0.00000000E+00
  0.00000000E+00  0.00000000E+00  0.00000000E+00
  0.00000000E+00  0.00000000E+00  0.00000000E+00
  0.00000000E+00  0.00000000E+00  0.00000000E+00
  0.00000000E+00  0.00000000E+00  0.00000000E+00
  0.00000000E+00  0.00000000E+00  0.00000000E+00
  0.00000000E+00  0.00000000E+00  0.00000000E+00
  0.00000000E+00  0.00000000E+00  0.00000000E+00
  0.00000000E+00  0.00000000E+00  0.00000000E+00
  0.00000000E+00  0.00000000E+00  0.00000000E+00
  0.00000000E+00  0.00000000E+00  0.00000000E+00
  0.00000000E+00  0.00000000E+00  0.00000000E+00
  0.00000000E+00  0.00000000E+00  0.00000000E+00
  0.00000000E+00  0.00000000E+00  0.00000000E+00
  0.00000000E+00  0.00000000E+00  0.00000000E+00
  0.00000000E+00  0.00000000E+00  0.00000000E+00
  0.00000000E+00  0.00000000E+00  0.00000000E+00
  0.00000000E+00  0.00000000E+00  0.00000000E+00
  0.00000000E+00  0.00000000E+00  0.00000000E+00
  0.00000000E+00  0.00000000E+00  0.00000000E+00
  0.00000000E+00  0.00000000E+00  0.00000000E+00
  0.00000000E+00  0.00000000E+00  0.00000000E+00
  0.00000000E+00  0.00000000E+00  0.00000000E+00
  0.00000000E+00  0.00000000E+00  0.00000000E+00
  0.00000000E+00  0.00000000E+00  0.00000000E+00
  0.00000000E+00  0.00000000E+00  0.00000000E+00
  0.00000000E+00  0.00000000E+00  0.00000000E+00
  0.00000000E+00  0.00000000E+00  0.00000000E+00
  0.00000000E+00  0.00000000E+00  0.00000000E+00
  0.00000000E+00  0.00000000E+00  0.00000000E+00
  0.00000000E+00  0.00000000E+00  0.00000000E+00
  0.00000000E+00  0.00000000E+00  0.00000000E+00
  0.00000000E+00  0.00000000E+00  0.00000000E+00
  0.00000000E+00  0.00000000E+00  0.00000000E+00
  0.00000000E+00  0.00000000E+00  0.00000000E+00
  0.00000000E+00  0.00000000E+00  0.00000000E+00
  0.00000000E+00  0.00000000E+00  0.00000000E+00
  0.00000000E+00  0.00000000E+00  0.00000000E+00
  0.00000000E+00  0.00000000E+00  0.00000000E+00
  0.00000000E+00  0.00000000E+00  0.00000000E+00
  0.00000000E+00  0.00000000E+00  0.00000000E+00
  0.00000000E+00  0.00000000E+00  0.00000000E+00
  0.00000000E+00  0.00000000E+00  0.00000000E+00
  0.00000000E+00  0.00000000E+00  0.00000000E+00
  0.00000000E+00  0.00000000E+00  0.00000000E+00
  0.00000000E+00  0.00000000E+00  0.00000000E+00
  0.00000000E+00  0.00000000E+00  0.00000000E+00
  0.00000000E+00  0.00000000E+00  0.00000000E+00
  0.00000000E+00  0.00000000E+00  0.00000000E+00
  0.00000000E+00  0.00000000E+00  0.00000000E+00
  0.00000000E+00  0.00000000E+00  0.00000000E+00
  0.00000000E+00  0.00000000E+00  0.00000000E+00
  0.00000000E+00  0.00000000E+00  0.00000000E+00
  0.00000000E+00  0.00000000E+00  0.00000000E+00
  0.00000000E+00  0.00000000E+00  0.00000000E+00
  0.00000000E+00  0.00000000E+00  0.00000000E+00
  0.00000000E+00  0.00000000E+00  0.00000000E+00
  0.00000000E+00  0.00000000E+00  0.00000000E+00
  0.00000000E+00  0.00000000E+00  0.00000000E+00
  0.00000000E+00  0.00000000E+00  0.00000000E+00
  0.00000000E+00  0.00000000E+00  0.00000000E+00
  0.00000000E+00  0.00000000E+00  0.00000000E+00
  0.00000000E+00  0.00000000E+00  0.00000000E+00
  0.00000000E+00  0.00000000E+00  0.00000000E+00
  0.00000000E+00  0.00000000E+00  0.00000000E+00
  0.00000000E+00  0.00000000E+00  0.00000000E+00
  0.00000000E+00  0.00000000E+00  0.00000000E+00
  0.00000000E+00  0.00000000E+00  0.00000000E+00
  0.00000000E+00  0.00000000E+00  0.00000000E+00
  0.00000000E+00  0.00000000E+00  0.00000000E+00
  0.00000000E+00  0.00000000E+00  0.00000000E+00
  0.00000000E+00  0.00000000E+00  0.00000000E+00
  0.00000000E+00  0.00000000E+00  0.00000000E+00
  0.00000000E+00  0.00000000E+00  0.00000000E+00
  0.00000000E+00  0.00000000E+00  0.00000000E+00
  0.00000000E+00  0.00000000E+00  0.00000000E+00
  0.00000000E+00  0.00000000E+00  0.00000000E+00
  0.00000000E+00  0.00000000E+00  0.00000000E+00
  0.00000000E+00  0.00000000E+00  0.00000000E+00
  0.00000000E+00  0.00000000E+00  0.00000000E+00
  0.00000000E+00  0.00000000E+00  0.00000000E+00
  0.00000000E+00  0.00000000E+00  0.00000000E+00
  0.00000000E+00  0.00000000E+00  0.00000000E+00
  0.00000000E+00  0.00000000E+00  0.00000000E+00
  0.00000000E+00  0.00000000E+00  0.00000000E+00
  0.00000000E+00  0.00000000E+00  0.00000000E+00
  0.00000000E+00  0.00000000E+00  0.00000000E+00
  0.00000000E+00  0.00000000E+00  0.00000000E+00
  0.00000000E+00  0.00000000E+00  0.00000000E+00
  0.00000000E+00  0.00000000E+00  0.00000000E+00
  0.00000000E+00  0.00000000E+00  0.00000000E+00
  0.00000000E+00  0.00000000E+00  0.00000000E+00
  0.00000000E+00  0.00000000E+00  0.00000000E+00
  0.00000000E+00  0.00000000E+00  0.00000000E+00
  0.00000000E+00  0.00000000E+00  0.00000000E+00
  0.00000000E+00  0.00000000E+00  0.00000000E+00
  0.00000000E+00  0.00000000E+00  0.00000000E+00
  0.00000000E+00  0.00000000E+00  0.00000000E+00
  0.00000000E+00  0.00000000E+00  0.00000000E+00
  0.00000000E+00  0.00000000E+00  0.00000000E+00
  0.00000000E+00  0.00000000E+00  0.00000000E+00
  0.00000000E+00  0.00000000E+00  0.00000000E+00
  0.00000000E+00  0.00000000E+00  0.00000000E+00
  0.00000000E+00  0.00000000E+00  0.00000000E+00
  0.00000000E+00  0.00000000E+00  0.00000000E+00
  0.00000000E+00  0.00000000E+00  0.00000000E+00
  0.00000000E+00  0.00000000E+00  0.00000000E+00
  0.00000000E+00  0.00000000E+00  0.00000000E+00
  0.00000000E+00  0.00000000E+00  0.00000000E+00
  0.00000000E+00  0.00000000E+00  0.00000000E+00
  0.00000000E+00  0.00000000E+00  0.00000000E+00
  0.00000000E+00  0.00000000E+00  0.00000000E+00
  0.00000000E+00  0.00000000E+00  0.00000000E+00
  0.00000000E+00  0.00000000E+00  0.00000000E+00
  0.00000000E+00  0.00000000E+00  0.00000000E+00
  0.00000000E+00  0.00000000E+00  0.00000000E+00
  0.00000000E+00  0.00000000E+00  0.00000000E+00
  0.00000000E+00  0.00000000E+00  0.00000000E+00
  0.00000000E+00  0.00000000E+00  0.00000000E+00
  0.00000000E+00  0.00000000E+00  0.00000000E+00
  0.00000000E+00  0.00000000E+00  0.00000000E+00
  0.00000000E+00  0.00000000E+00  0.00000000E+00
  0.00000000E+00  0.00000000E+00  0.00000000E+00
  0.00000000E+00  0.00000000E+00  0.00000000E+00
  0.00000000E+00  0.00000000E+00  0.00000000E+00
  0.00000000E+00  0.00000000E+00  0.00000000E+00
  0.00000000E+00  0.00000000E+00  0.00000000E+00
  0.00000000E+00  0.00000000E+00  0.00000000E+00
  0.00000000E+00  0.00000000E+00  0.00000000E+00
  0.00000000E+00  0.00000000E+00  0.00000000E+00
  0.00000000E+00  0.00000000E+00  0.00000000E+00
  0.00000000E+00  0.00000000E+00  0.00000000E+00
  0.00000000E+00  0.00000000E+00  0.00000000E+00
  0.00000000E+00  0.00000000E+00  0.00000000E+00
  0.00000000E+00  0.00000000E+00  0.00000000E+00
  0.00000000E+00  0.00000000E+00  0.00000000E+00
  0.00000000E+00  0.00000000E+00  0.00000000E+00
  0.00000000E+00  0.00000000E+00  0.00000000E+00
  0.00000000E+00  0.00000000E+00  0.00000000E+00
  0.00000000E+00  0.00000000E+00  0.00000000E+00
  0.00000000E+00  0.00000000E+00  0.00000000E+00
  0.00000000E+00  0.00000000E+00  0.00000000E+00
  0.00000000E+00  0.00000000E+00  0.00000000E+00
  0.00000000E+00  0.00000000E+00  0.00000000E+00
  0.00000000E+00  0.00000000E+00  0.00000000E+00
  0.00000000E+00  0.00000000E+00  0.00000000E+00
  0.00000000E+00  0.00000000E+00  0.00000000E+00
  0.00000000E+00  0.00000000E+00  0.00000000E+00
  0.00000000E+00  0.00000000E+00  0.00000000E+00
  0.00000000E+00  0.00000000E+00  0.00000000E+00
  0.00000000E+00  0.00000000E+00  0.00000000E+00
  0.00000000E+00  0.00000000E+00  0.00000000E+00
  0.00000000E+00  0.00000000E+00  0.00000000E+00
  0.00000000E+00  0.00000000E+00  0.00000000E+00
  0.00000000E+00  0.00000000E+00  0.00000000E+00
  0.00000000E+00  0.00000000E+00  0.00000000E+00
  0.00000000E+00  0.00000000E+00  0.00000000E+00
  0.00000000E+00  0.00000000E+00  0.00000000E+00
  0.00000000E+00  0.00000000E+00  0.00000000E+00
  0.00000000E+00  0.00000000E+00  0.00000000E+00
  0.00000000E+00  0.00000000E+00  0.00000000E+00
  0.00000000E+00  0.00000000E+00  0.00000000E+00
  0.00000000E+00  0.00000000E+00  0.00000000E+00
  0.00000000E+00  0.00000000E+00  0.00000000E+00
  0.00000000E+00  0.00000000E+00  0.00000000E+00
  0.00000000E+00  0.00000000E+00  0.00000000E+00
  0.00000000E+00  0.00000000E+00  0.00000000E+00
  0.00000000E+00  0.00000000E+00  0.00000000E+00
  0.00000000E+00  0.00000000E+00  0.00000000E+00
