In18 Ga36 Cu30 Ag24 Se108               
   1.0000000000000000     
    16.0690240252937002   -0.0000253381088208   -7.2905139889289288
    -3.2929278621995808   15.7302659888378376   -7.2878122587969489
     0.0038393359928191    0.0043447431883806   21.3593372587285089
   In   Ga   Cu   Ag   Se
    18    36    30    24   108
Direct
  0.1639481488948178  0.4963701158962479  0.0019377916847461
  0.1684982097190826  0.1693823985878282  0.0027490561973238
  0.4996344642177846  0.1630225335183226  0.0003286840509276
  0.8349980486505899  0.4977964222758615  0.3321579270087014
  0.1673907550276041  0.8322664147684833  0.3343681249070869
  0.8364981928905664  0.8341556011544498  0.3346862738214824
  0.8341929294790802  0.1677941429373249  0.3330435011881292
  0.1641358007005920  0.4994617121388671  0.6630760344453606
  0.4974322843694594  0.8352343837238081  0.6652471486626013
  0.5083571133882288  0.1648152720352130  0.6693073629347452
  0.2493852291019749  0.7482185684719624  0.1667320405645754
  0.5791126437176430  0.7483291022648615  0.1637876000602603
  0.9191824637896104  0.7468380916899733  0.1631251795683468
  0.5836442503993666  0.7494348210371342  0.4962106904824779
  0.2475568274919979  0.0891465150242112  0.5007420801489815
  0.2485055423854305  0.4161221627153822  0.8363582219697037
  0.2547818112555191  0.7499570716300212  0.8373106803540367
  0.5823573973494121  0.7555013181813734  0.8355886816977360
  0.5016751060124918  0.4978551836235283  0.0018583006395900
  0.8389255364092278  0.4970297264670833  0.9999340799888401
  0.1568043016221523  0.8353022536167600  0.0024864543976975
  0.5025882900708183  0.8416220451257175  0.0010640265570032
  0.8386469930752440  0.8412559228750922  0.0004928951686480
  0.8335466920081771  0.1636608126208188  0.0011782374624119
  0.1650538922546261  0.4998794911318640  0.3318274901645424
  0.4980686403103149  0.4951053231641396  0.3310175465475638
  0.4969340287201121  0.8330395674875319  0.3320796201725784
  0.1613842002656298  0.1677544894952590  0.3302637118272074
  0.5003517894131733  0.1673057771553914  0.3317516046002424
  0.4970573073354387  0.5013772887151760  0.6657971495206709
  0.8357562332828365  0.4993859804127538  0.6663144988463472
  0.1681419584098123  0.8324238677101974  0.6672754751155452
  0.8337229607943257  0.8417820176786677  0.6680580201003536
  0.1590946688402610  0.1641636423639028  0.6630498628633603
  0.8344519988519892  0.1620919705006685  0.6677905239874349
  0.2555326683352490  0.4203934874551791  0.1733458436124451
  0.5813497578415934  0.4144221353683406  0.1655224003114171
  0.9170756724674689  0.4136972333280440  0.1661369833083768
  0.2463163066441254  0.0833018019812357  0.1684457698505710
  0.5851808490776378  0.0888214068214523  0.1688362335481060
  0.9172223105551964  0.0855920077556149  0.1658225317102975
  0.2430048632173722  0.4148852165751009  0.4948543305538848
  0.5824340282713791  0.4161445323346129  0.4979093232612115
  0.9181644213899105  0.4172782392256025  0.4972497022211471
  0.2438526027285164  0.7429052064302724  0.4964147034098616
  0.9202751342785973  0.7548805388757529  0.5056144709801487
  0.5885442757830788  0.0762351136070052  0.4968659467920062
  0.9168608593854728  0.0827075773680335  0.4993247236580416
  0.5890598993102003  0.4195979904065013  0.8388147216501025
  0.9169763559302524  0.4145999537424316  0.8318099696763639
  0.9165470740742947  0.7544638729092199  0.8358372827925606
  0.2452613747399326  0.0839290654918017  0.8308515542211836
  0.5929085099012781  0.0793489968416523  0.8352864314820678
  0.9137323422129882  0.0843913621660803  0.8337126688412724
  0.3333729377952181  0.3346941309801892  0.0058429126697916
  0.9975581155208388  0.6671446494785727  0.9977817179826189
  0.9973965042431843  0.9997310000361708  0.0007015796046943
  0.6712735959178104  0.0030030321811694  0.9996494950717505
  0.0027101277691486  0.3373204449404099  0.3357585925951696
  0.3357856083910917  0.3286087979138514  0.3311520699922426
  0.6596171900528844  0.3282621542356452  0.3277772017202949
  0.9979165629003290  0.6588837367916298  0.3310206189550513
  0.3294868519271077  0.6594932871791244  0.3283431847433533
  0.0022544877065798  0.0046080848367538  0.3307442251103367
  0.3323570746145492  0.0076605004246062  0.3317500701721698
  0.6659346182418773  0.9995998755174682  0.3382280680383758
  0.3286641515593516  0.6659447004053192  0.6650743525152407
  0.9985200204438698  0.0033252944263893  0.6668581097919173
  0.6748993991498935  0.0021913032656755  0.6715083012665133
  0.0784612560501188  0.5798695734297681  0.1691960036895281
  0.4177895747345346  0.5740117849387261  0.1673989487464311
  0.7540452987020387  0.5778447469401513  0.1656756464410662
  0.0834490136735226  0.9220146536040232  0.1673179526890465
  0.4178862727801089  0.2558433701828946  0.1748068578027500
  0.7537262814132006  0.2494470703812794  0.1668467904251045
  0.0848735004011090  0.5862991875153298  0.4959073261426141
  0.7535996423138371  0.9223624743909227  0.5048728145104207
  0.0784025347771973  0.2477287081054058  0.4952432570367691
  0.0743577466573342  0.5884536743353834  0.8370680681096658
  0.4210032214829837  0.5832795507036508  0.8348174484354374
  0.4194333479847501  0.9194297644047396  0.8335136041330813
  0.7566851577239859  0.9243733545542341  0.8381018246611376
  0.0818497388392458  0.2433080704019801  0.8283607570954459
  0.7552298734041187  0.2476779131188707  0.8358487588598322
  0.0003663008855668  0.3323548660917623  0.9981600274974696
  0.6713847409579614  0.3332519156374616  0.0007038626675424
  0.3288065146978880  0.6656517143137037  0.9946094257967317
  0.6634154402384809  0.6646908252939596  0.0004946358472679
  0.3345443480555019  0.0006468245367230  0.0063957394241712
  0.6684338129877432  0.6705434110919128  0.3312440457387140
  0.0034190250154467  0.3309862381520148  0.6704239102749980
  0.3378144073543581  0.3446194496538908  0.6705747864538694
  0.6605958289439613  0.3297605681151339  0.6634866179814622
  0.9928239871429199  0.6615450537775089  0.6637703685493292
  0.6771282133053234  0.6737396162936875  0.6714535794465135
  0.3333647651570857  0.9966101393873643  0.6716329387211957
  0.4227783581089071  0.9267713426955808  0.1741063136487355
  0.7451001092426424  0.9181464384328137  0.1626444476748716
  0.0877739365512298  0.2554678439272138  0.1714682758986399
  0.4076645430166579  0.5737390072530033  0.4957298635041738
  0.7547311347068799  0.5778283133594471  0.5004146543332908
  0.0781684699767098  0.9134144101579693  0.5001499140256342
  0.4192800042392477  0.9175865723540184  0.4967406409296231
  0.4119982302628102  0.2455874988796012  0.4868262429473305
  0.7511011847243836  0.2547646038193250  0.5006230141782879
  0.7541719725974687  0.5814644522909589  0.8323330964668259
  0.0770730063118634  0.9142639739410328  0.8291545028222913
  0.4128111567220998  0.2466821530210197  0.8322493968694857
  0.1294758332548227  0.4612023541158550  0.0974296415551663
  0.4562690636726288  0.4544859669565895  0.0821654150045745
  0.8019477782654150  0.4638207149108666  0.0874846818324286
  0.1140287917867724  0.7933631616389007  0.0824362613377119
  0.4569446960209902  0.7987544960241806  0.0771158140914991
  0.7935475014108988  0.7937727779521850  0.0751989492938137
  0.1218172957678476  0.1172206572330197  0.0837739728121960
  0.4606124852094524  0.1339150327066889  0.0971610692449545
  0.7907870746812122  0.1253455477134011  0.0839910446075507
  0.1219693291122681  0.4612015335079391  0.4145256105685107
  0.4579345260393453  0.4486312894809856  0.4103040189765466
  0.7882542843137372  0.4426530890478233  0.4110227208815260
  0.1186799729705612  0.7796853896060654  0.4146264784529023
  0.4489519424088044  0.7819824263846868  0.4033818031196930
  0.7983165042898293  0.8004683405329018  0.4291790843187044
  0.1165050969584129  0.1297136531647070  0.4110061183616409
  0.4648210315118675  0.1158781094855570  0.4106724036894605
  0.7905977853188801  0.1167850804169248  0.4168483810863961
  0.1217861308546020  0.4726112121890367  0.7591972916990954
  0.4712036321820321  0.4684055791415744  0.7589961591088326
  0.7992135140577474  0.4524788316920905  0.7454614086497173
  0.1263045246231442  0.7882551535295832  0.7445421334366813
  0.4449101556265660  0.7918891465867191  0.7475301242935899
  0.8011590474916517  0.8060070562703316  0.7574959851426115
  0.1202573509638896  0.1226516529594903  0.7462602206837659
  0.4696742683205954  0.1188642956823429  0.7568583342596824
  0.7911396223841933  0.1260508952997199  0.7518862311167283
  0.3009826810217433  0.6188107804895751  0.0872139142094781
  0.6280794374215191  0.6143518123119520  0.0870063981856646
  0.9654422225471535  0.6157485903371267  0.0771954970027977
  0.2795593748987670  0.9564020073018895  0.0859034303288695
  0.6201486262161424  0.9681287167643546  0.0782325432068731
  0.9622568420334261  0.9639473581123283  0.0856246325518839
  0.3008923473632237  0.3001679165041296  0.0935682104212958
  0.6307897038060375  0.2940927927342187  0.0913848883556767
  0.9507520495309194  0.2892688954300269  0.0819053851483602
  0.2838015360946002  0.6246431262307937  0.4100752259028511
  0.6205894749696057  0.6134844525267269  0.4096841693202364
  0.9634398922861109  0.6331758221257786  0.4220327365651784
  0.2934458045552262  0.9651558399869700  0.4112925493814501
  0.6276429085663437  0.9514311888068008  0.4154611176949246
  0.9615147805493791  0.9689275827185355  0.4138183923702314
  0.2803931608726131  0.2938771144359507  0.4067704143486068
  0.6184779202936994  0.2936923995621683  0.4111461149546827
  0.9654061437883712  0.2984622244639112  0.4196215608026250
  0.3028812703751171  0.6223118420323459  0.7508019942570243
  0.6189041066257914  0.6215137640789266  0.7461553983295417
  0.9534917024138991  0.6264199860570017  0.7552465359957807
  0.2898978739841525  0.9563037686983193  0.7581204101707755
  0.6359160781618698  0.9609712810569206  0.7525391515072073
  0.9519349549916853  0.9658948797348614  0.7459683742717900
  0.2804091092063956  0.2842512803124606  0.7411908444287931
  0.6353871395180732  0.2973609857971979  0.7641417579828698
  0.9571570991014511  0.2860368013926546  0.7546213040806080
  0.2192816794426804  0.3824757667215835  0.2582940149836617
  0.5415079472938018  0.3741832910110148  0.2495338969878773
  0.8793648770201230  0.3660608353954302  0.2457343322416747
  0.2042608737624647  0.6947313972655991  0.2480658426368123
  0.5279626524731285  0.7058804875041744  0.2469127329414746
  0.8757135847112707  0.6970438609916414  0.2485922992379486
  0.2065524265197993  0.0435810728424499  0.2516079325341636
  0.5557953889183693  0.0522656047278787  0.2585021899575608
  0.8821757337518221  0.0409899909515090  0.2470452250550537
  0.2003623535214771  0.3659844614071943  0.5708900698779118
  0.5371283306733758  0.3820427447330630  0.5801199253517382
  0.8812201685221481  0.3844821949002082  0.5841537297049868
  0.2074097225898512  0.7060533333441938  0.5832061877357475
  0.5394145769550249  0.7038303556297123  0.5804310881700019
  0.8708959380955434  0.7189253283239907  0.5842688262106819
  0.2063987014420974  0.0460338109136629  0.5882793866082281
  0.5563539026957685  0.0375359806048365  0.5836688277924083
  0.8776305626902285  0.0411100029087734  0.5834641694586580
  0.2057193144489062  0.3606101188627520  0.9179044719870078
  0.5411501211332421  0.3794937877149493  0.9164852023600858
  0.8700354509178680  0.3740298055036675  0.9106542471334151
  0.1927652913291098  0.7110688701514860  0.9178449450123409
  0.5339616283752449  0.7122789196318919  0.9197624443962056
  0.8801262114349200  0.7170443271546105  0.9210443344883004
  0.2092186876102318  0.0420328710318287  0.9122587057380542
  0.5468040664145661  0.0333702804999447  0.9122533548482465
  0.8795190642691395  0.0435447704230398  0.9201876899769417
  0.0388566984325323  0.5382185532258248  0.2494995912857689
  0.3777759960605636  0.5419059314973325  0.2521649372227657
  0.7042818349891320  0.5359825467785271  0.2397778704522082
  0.0424731328166459  0.8849226127472818  0.2498231756266449
  0.3765931512694394  0.8827022934417244  0.2592497947882890
  0.7045907784084804  0.8820000690543779  0.2539249638507997
  0.0370336387609527  0.2102713812090542  0.2539869207223759
  0.3726887644712562  0.2056677004311496  0.2490750663057426
  0.7045419990582928  0.2134204312396975  0.2455379788719299
  0.0365125497543985  0.5408606498881880  0.5699202963558463
  0.3663120617100972  0.5380310703783024  0.5871789682043200
  0.7089494204471549  0.5332861859818081  0.5847074797374532
  0.0416199885635393  0.8773333732187041  0.5934412129878837
  0.3619348977930699  0.8666939346357410  0.5720827691193051
  0.7127911521907961  0.8841549453748456  0.5867105105677979
  0.0408972046920013  0.2034292627783429  0.5759102400105647
  0.3817846094349875  0.2127214988891026  0.5853225796351325
  0.7102744629013173  0.1979267766238024  0.5827085828220717
  0.0343221795372415  0.5430046669950244  0.9143733793469764
  0.3855782995737869  0.5405312283819157  0.9165983513288865
  0.7144482820640334  0.5362862089261782  0.9204593939189465
  0.0369827943147456  0.8776437821640499  0.9208800093827776
  0.3840269463415211  0.8809232303866850  0.9176317055514431
  0.7169163985594196  0.8857837458246607  0.9203619802456942
  0.0375347091716733  0.2031051554848489  0.9066957204188810
  0.3645837188718133  0.2090780534094137  0.9192268743892100
  0.7148573770826019  0.2014939166710050  0.9141042337264764

  0.00000000E+00  0.00000000E+00  0.00000000E+00
  0.00000000E+00  0.00000000E+00  0.00000000E+00
  0.00000000E+00  0.00000000E+00  0.00000000E+00
  0.00000000E+00  0.00000000E+00  0.00000000E+00
  0.00000000E+00  0.00000000E+00  0.00000000E+00
  0.00000000E+00  0.00000000E+00  0.00000000E+00
  0.00000000E+00  0.00000000E+00  0.00000000E+00
  0.00000000E+00  0.00000000E+00  0.00000000E+00
  0.00000000E+00  0.00000000E+00  0.00000000E+00
  0.00000000E+00  0.00000000E+00  0.00000000E+00
  0.00000000E+00  0.00000000E+00  0.00000000E+00
  0.00000000E+00  0.00000000E+00  0.00000000E+00
  0.00000000E+00  0.00000000E+00  0.00000000E+00
  0.00000000E+00  0.00000000E+00  0.00000000E+00
  0.00000000E+00  0.00000000E+00  0.00000000E+00
  0.00000000E+00  0.00000000E+00  0.00000000E+00
  0.00000000E+00  0.00000000E+00  0.00000000E+00
  0.00000000E+00  0.00000000E+00  0.00000000E+00
  0.00000000E+00  0.00000000E+00  0.00000000E+00
  0.00000000E+00  0.00000000E+00  0.00000000E+00
  0.00000000E+00  0.00000000E+00  0.00000000E+00
  0.00000000E+00  0.00000000E+00  0.00000000E+00
  0.00000000E+00  0.00000000E+00  0.00000000E+00
  0.00000000E+00  0.00000000E+00  0.00000000E+00
  0.00000000E+00  0.00000000E+00  0.00000000E+00
  0.00000000E+00  0.00000000E+00  0.00000000E+00
  0.00000000E+00  0.00000000E+00  0.00000000E+00
  0.00000000E+00  0.00000000E+00  0.00000000E+00
  0.00000000E+00  0.00000000E+00  0.00000000E+00
  0.00000000E+00  0.00000000E+00  0.00000000E+00
  0.00000000E+00  0.00000000E+00  0.00000000E+00
  0.00000000E+00  0.00000000E+00  0.00000000E+00
  0.00000000E+00  0.00000000E+00  0.00000000E+00
  0.00000000E+00  0.00000000E+00  0.00000000E+00
  0.00000000E+00  0.00000000E+00  0.00000000E+00
  0.00000000E+00  0.00000000E+00  0.00000000E+00
  0.00000000E+00  0.00000000E+00  0.00000000E+00
  0.00000000E+00  0.00000000E+00  0.00000000E+00
  0.00000000E+00  0.00000000E+00  0.00000000E+00
  0.00000000E+00  0.00000000E+00  0.00000000E+00
  0.00000000E+00  0.00000000E+00  0.00000000E+00
  0.00000000E+00  0.00000000E+00  0.00000000E+00
  0.00000000E+00  0.00000000E+00  0.00000000E+00
  0.00000000E+00  0.00000000E+00  0.00000000E+00
  0.00000000E+00  0.00000000E+00  0.00000000E+00
  0.00000000E+00  0.00000000E+00  0.00000000E+00
  0.00000000E+00  0.00000000E+00  0.00000000E+00
  0.00000000E+00  0.00000000E+00  0.00000000E+00
  0.00000000E+00  0.00000000E+00  0.00000000E+00
  0.00000000E+00  0.00000000E+00  0.00000000E+00
  0.00000000E+00  0.00000000E+00  0.00000000E+00
  0.00000000E+00  0.00000000E+00  0.00000000E+00
  0.00000000E+00  0.00000000E+00  0.00000000E+00
  0.00000000E+00  0.00000000E+00  0.00000000E+00
  0.00000000E+00  0.00000000E+00  0.00000000E+00
  0.00000000E+00  0.00000000E+00  0.00000000E+00
  0.00000000E+00  0.00000000E+00  0.00000000E+00
  0.00000000E+00  0.00000000E+00  0.00000000E+00
  0.00000000E+00  0.00000000E+00  0.00000000E+00
  0.00000000E+00  0.00000000E+00  0.00000000E+00
  0.00000000E+00  0.00000000E+00  0.00000000E+00
  0.00000000E+00  0.00000000E+00  0.00000000E+00
  0.00000000E+00  0.00000000E+00  0.00000000E+00
  0.00000000E+00  0.00000000E+00  0.00000000E+00
  0.00000000E+00  0.00000000E+00  0.00000000E+00
  0.00000000E+00  0.00000000E+00  0.00000000E+00
  0.00000000E+00  0.00000000E+00  0.00000000E+00
  0.00000000E+00  0.00000000E+00  0.00000000E+00
  0.00000000E+00  0.00000000E+00  0.00000000E+00
  0.00000000E+00  0.00000000E+00  0.00000000E+00
  0.00000000E+00  0.00000000E+00  0.00000000E+00
  0.00000000E+00  0.00000000E+00  0.00000000E+00
  0.00000000E+00  0.00000000E+00  0.00000000E+00
  0.00000000E+00  0.00000000E+00  0.00000000E+00
  0.00000000E+00  0.00000000E+00  0.00000000E+00
  0.00000000E+00  0.00000000E+00  0.00000000E+00
  0.00000000E+00  0.00000000E+00  0.00000000E+00
  0.00000000E+00  0.00000000E+00  0.00000000E+00
  0.00000000E+00  0.00000000E+00  0.00000000E+00
  0.00000000E+00  0.00000000E+00  0.00000000E+00
  0.00000000E+00  0.00000000E+00  0.00000000E+00
  0.00000000E+00  0.00000000E+00  0.00000000E+00
  0.00000000E+00  0.00000000E+00  0.00000000E+00
  0.00000000E+00  0.00000000E+00  0.00000000E+00
  0.00000000E+00  0.00000000E+00  0.00000000E+00
  0.00000000E+00  0.00000000E+00  0.00000000E+00
  0.00000000E+00  0.00000000E+00  0.00000000E+00
  0.00000000E+00  0.00000000E+00  0.00000000E+00
  0.00000000E+00  0.00000000E+00  0.00000000E+00
  0.00000000E+00  0.00000000E+00  0.00000000E+00
  0.00000000E+00  0.00000000E+00  0.00000000E+00
  0.00000000E+00  0.00000000E+00  0.00000000E+00
  0.00000000E+00  0.00000000E+00  0.00000000E+00
  0.00000000E+00  0.00000000E+00  0.00000000E+00
  0.00000000E+00  0.00000000E+00  0.00000000E+00
  0.00000000E+00  0.00000000E+00  0.00000000E+00
  0.00000000E+00  0.00000000E+00  0.00000000E+00
  0.00000000E+00  0.00000000E+00  0.00000000E+00
  0.00000000E+00  0.00000000E+00  0.00000000E+00
  0.00000000E+00  0.00000000E+00  0.00000000E+00
  0.00000000E+00  0.00000000E+00  0.00000000E+00
  0.00000000E+00  0.00000000E+00  0.00000000E+00
  0.00000000E+00  0.00000000E+00  0.00000000E+00
  0.00000000E+00  0.00000000E+00  0.00000000E+00
  0.00000000E+00  0.00000000E+00  0.00000000E+00
  0.00000000E+00  0.00000000E+00  0.00000000E+00
  0.00000000E+00  0.00000000E+00  0.00000000E+00
  0.00000000E+00  0.00000000E+00  0.00000000E+00
  0.00000000E+00  0.00000000E+00  0.00000000E+00
  0.00000000E+00  0.00000000E+00  0.00000000E+00
  0.00000000E+00  0.00000000E+00  0.00000000E+00
  0.00000000E+00  0.00000000E+00  0.00000000E+00
  0.00000000E+00  0.00000000E+00  0.00000000E+00
  0.00000000E+00  0.00000000E+00  0.00000000E+00
  0.00000000E+00  0.00000000E+00  0.00000000E+00
  0.00000000E+00  0.00000000E+00  0.00000000E+00
  0.00000000E+00  0.00000000E+00  0.00000000E+00
  0.00000000E+00  0.00000000E+00  0.00000000E+00
  0.00000000E+00  0.00000000E+00  0.00000000E+00
  0.00000000E+00  0.00000000E+00  0.00000000E+00
  0.00000000E+00  0.00000000E+00  0.00000000E+00
  0.00000000E+00  0.00000000E+00  0.00000000E+00
  0.00000000E+00  0.00000000E+00  0.00000000E+00
  0.00000000E+00  0.00000000E+00  0.00000000E+00
  0.00000000E+00  0.00000000E+00  0.00000000E+00
  0.00000000E+00  0.00000000E+00  0.00000000E+00
  0.00000000E+00  0.00000000E+00  0.00000000E+00
  0.00000000E+00  0.00000000E+00  0.00000000E+00
  0.00000000E+00  0.00000000E+00  0.00000000E+00
  0.00000000E+00  0.00000000E+00  0.00000000E+00
  0.00000000E+00  0.00000000E+00  0.00000000E+00
  0.00000000E+00  0.00000000E+00  0.00000000E+00
  0.00000000E+00  0.00000000E+00  0.00000000E+00
  0.00000000E+00  0.00000000E+00  0.00000000E+00
  0.00000000E+00  0.00000000E+00  0.00000000E+00
  0.00000000E+00  0.00000000E+00  0.00000000E+00
  0.00000000E+00  0.00000000E+00  0.00000000E+00
  0.00000000E+00  0.00000000E+00  0.00000000E+00
  0.00000000E+00  0.00000000E+00  0.00000000E+00
  0.00000000E+00  0.00000000E+00  0.00000000E+00
  0.00000000E+00  0.00000000E+00  0.00000000E+00
  0.00000000E+00  0.00000000E+00  0.00000000E+00
  0.00000000E+00  0.00000000E+00  0.00000000E+00
  0.00000000E+00  0.00000000E+00  0.00000000E+00
  0.00000000E+00  0.00000000E+00  0.00000000E+00
  0.00000000E+00  0.00000000E+00  0.00000000E+00
  0.00000000E+00  0.00000000E+00  0.00000000E+00
  0.00000000E+00  0.00000000E+00  0.00000000E+00
  0.00000000E+00  0.00000000E+00  0.00000000E+00
  0.00000000E+00  0.00000000E+00  0.00000000E+00
  0.00000000E+00  0.00000000E+00  0.00000000E+00
  0.00000000E+00  0.00000000E+00  0.00000000E+00
  0.00000000E+00  0.00000000E+00  0.00000000E+00
  0.00000000E+00  0.00000000E+00  0.00000000E+00
  0.00000000E+00  0.00000000E+00  0.00000000E+00
  0.00000000E+00  0.00000000E+00  0.00000000E+00
  0.00000000E+00  0.00000000E+00  0.00000000E+00
  0.00000000E+00  0.00000000E+00  0.00000000E+00
  0.00000000E+00  0.00000000E+00  0.00000000E+00
  0.00000000E+00  0.00000000E+00  0.00000000E+00
  0.00000000E+00  0.00000000E+00  0.00000000E+00
  0.00000000E+00  0.00000000E+00  0.00000000E+00
  0.00000000E+00  0.00000000E+00  0.00000000E+00
  0.00000000E+00  0.00000000E+00  0.00000000E+00
  0.00000000E+00  0.00000000E+00  0.00000000E+00
  0.00000000E+00  0.00000000E+00  0.00000000E+00
  0.00000000E+00  0.00000000E+00  0.00000000E+00
  0.00000000E+00  0.00000000E+00  0.00000000E+00
  0.00000000E+00  0.00000000E+00  0.00000000E+00
  0.00000000E+00  0.00000000E+00  0.00000000E+00
  0.00000000E+00  0.00000000E+00  0.00000000E+00
  0.00000000E+00  0.00000000E+00  0.00000000E+00
  0.00000000E+00  0.00000000E+00  0.00000000E+00
  0.00000000E+00  0.00000000E+00  0.00000000E+00
  0.00000000E+00  0.00000000E+00  0.00000000E+00
  0.00000000E+00  0.00000000E+00  0.00000000E+00
  0.00000000E+00  0.00000000E+00  0.00000000E+00
  0.00000000E+00  0.00000000E+00  0.00000000E+00
  0.00000000E+00  0.00000000E+00  0.00000000E+00
  0.00000000E+00  0.00000000E+00  0.00000000E+00
  0.00000000E+00  0.00000000E+00  0.00000000E+00
  0.00000000E+00  0.00000000E+00  0.00000000E+00
  0.00000000E+00  0.00000000E+00  0.00000000E+00
  0.00000000E+00  0.00000000E+00  0.00000000E+00
  0.00000000E+00  0.00000000E+00  0.00000000E+00
  0.00000000E+00  0.00000000E+00  0.00000000E+00
  0.00000000E+00  0.00000000E+00  0.00000000E+00
  0.00000000E+00  0.00000000E+00  0.00000000E+00
  0.00000000E+00  0.00000000E+00  0.00000000E+00
  0.00000000E+00  0.00000000E+00  0.00000000E+00
  0.00000000E+00  0.00000000E+00  0.00000000E+00
  0.00000000E+00  0.00000000E+00  0.00000000E+00
  0.00000000E+00  0.00000000E+00  0.00000000E+00
  0.00000000E+00  0.00000000E+00  0.00000000E+00
  0.00000000E+00  0.00000000E+00  0.00000000E+00
  0.00000000E+00  0.00000000E+00  0.00000000E+00
  0.00000000E+00  0.00000000E+00  0.00000000E+00
  0.00000000E+00  0.00000000E+00  0.00000000E+00
  0.00000000E+00  0.00000000E+00  0.00000000E+00
  0.00000000E+00  0.00000000E+00  0.00000000E+00
  0.00000000E+00  0.00000000E+00  0.00000000E+00
  0.00000000E+00  0.00000000E+00  0.00000000E+00
  0.00000000E+00  0.00000000E+00  0.00000000E+00
  0.00000000E+00  0.00000000E+00  0.00000000E+00
  0.00000000E+00  0.00000000E+00  0.00000000E+00
  0.00000000E+00  0.00000000E+00  0.00000000E+00
  0.00000000E+00  0.00000000E+00  0.00000000E+00
  0.00000000E+00  0.00000000E+00  0.00000000E+00
  0.00000000E+00  0.00000000E+00  0.00000000E+00
  0.00000000E+00  0.00000000E+00  0.00000000E+00
  0.00000000E+00  0.00000000E+00  0.00000000E+00
  0.00000000E+00  0.00000000E+00  0.00000000E+00
  0.00000000E+00  0.00000000E+00  0.00000000E+00
  0.00000000E+00  0.00000000E+00  0.00000000E+00
  0.00000000E+00  0.00000000E+00  0.00000000E+00
  0.00000000E+00  0.00000000E+00  0.00000000E+00
