In30 Ga24 Ag54 Se108                    
   1.0000000000000000     
    16.6683466553847701    0.0060451789348351   -7.7161890110593445
    -3.5802858467899008   16.2789749116738562   -7.7293459507999245
     0.0034665168321749    0.0123080313904251   21.8745188195516782
   In   Ga   Ag   Se
    30    24    54   108
Direct
  0.5002879164331873  0.4998389474510816  0.9993639942706167
  0.1632128684549485  0.8352793799271794  0.9973213497385203
  0.4968924105937091  0.8311213352161317  0.9989833811547371
  0.8391178821385665  0.8321102344110471  0.0009900539322416
  0.1691081679242856  0.1699707004794320  0.0033595566391398
  0.4966328023268147  0.5003875734214986  0.3348027559153692
  0.8344738122067881  0.5025105098280704  0.3317536403626136
  0.5006642680378519  0.8332691493274211  0.3371360104225118
  0.8394387473436353  0.8358169549165240  0.3370445690569923
  0.8370474746344669  0.1663704918865179  0.3340172140143167
  0.1661597182803689  0.5033427902666645  0.6680829689990588
  0.8320849826086629  0.4990557222842114  0.6673755743371785
  0.4991548438465472  0.8313869947687706  0.6633619180364505
  0.8315827540588572  0.8293883509232529  0.6639426802560777
  0.1668937265452328  0.1648774677258018  0.6669687497175545
  0.5008451567370926  0.1655203620428338  0.6639144523649421
  0.8301026862712604  0.1669615554326072  0.6640293127211265
  0.5797224471970424  0.4138636005592033  0.1640088540018994
  0.2454353211960694  0.7469457664488672  0.1660548941409346
  0.5826632497285757  0.7498727482982233  0.1687075856382805
  0.5818816177922059  0.0871592782881336  0.1668176601738480
  0.9218546077546605  0.0851182974663658  0.1667328569750239
  0.2513804221159930  0.4153767910340136  0.4978750830050913
  0.9172411860763390  0.4175064009799314  0.4988682029359524
  0.2476790372650299  0.0799451241719353  0.4941873319289343
  0.2480890547986192  0.4192337249847284  0.8357623813573340
  0.5874959169215899  0.4169629547922469  0.8333738046466763
  0.5839432814957632  0.7474229920286959  0.8324307883165218
  0.5872008907807782  0.0845037106771116  0.8374901404653414
  0.9149263402074510  0.0843148125660420  0.8348648240608014
  0.1647773421419103  0.4967343205250643  0.0003799858982561
  0.8386224320587843  0.5023509364383969  0.0029835251853214
  0.4950293100521179  0.1643119465156744  0.9971926809728657
  0.8366196328797457  0.1703642759373736  0.0034122102392118
  0.1652924045778263  0.5021854615254355  0.3320748479140931
  0.1658168883391156  0.8284699145340468  0.3334757984203023
  0.1683817989724545  0.1674500143373905  0.3311968698945762
  0.4963500535483973  0.1669999465694616  0.3351884247831549
  0.5010650743886771  0.4999637643645514  0.6643875620444675
  0.1672301373893248  0.8336809623188728  0.6665302782906011
  0.2484762764874020  0.4221105870230630  0.1680105178956879
  0.9197020383750569  0.4145992749360232  0.1648596692212223
  0.9210409615359367  0.7467098321241608  0.1683722182880132
  0.2506149794450465  0.0851004315925508  0.1701780601900396
  0.5779593051178438  0.4156097110057502  0.4991489878483719
  0.2470688368471201  0.7508645722795109  0.4989237841128116
  0.5826235118759442  0.7485514574873378  0.4996007848272015
  0.9204853199622391  0.7486710902939322  0.5022084604490828
  0.5813427067419212  0.0826083738448133  0.4965931967214630
  0.9186123284961312  0.0844755488041571  0.5008330431042936
  0.9194343773261124  0.4180479919574296  0.8375713745930540
  0.2500012878015809  0.7514961024204823  0.8312955010701586
  0.9150276291828732  0.7496524405050735  0.8314943590172561
  0.2482147342117784  0.0806838837936397  0.8332726499887428
  0.9995438624715831  0.3399938274506837  0.0060153820788216
  0.3311785103275184  0.3257620887293484  0.9991819076452870
  0.6729057492444070  0.3369151943111532  0.0031497166446215
  0.9965761127588948  0.6606604228736899  0.9957428458985333
  0.3284291834199209  0.6667732271635955  0.9969486748977090
  0.6765627629848439  0.6719178383702200  0.0065983620806307
  0.0042030367047232  0.0021087723004598  0.0010728760815439
  0.3293501429674421  0.9999403012381123  0.9987110800157382
  0.6668310440242635  0.0040133513685987  0.0024019035838592
  0.0001274445290775  0.3389730270776994  0.3285694581462764
  0.3291780867784766  0.3310812594934802  0.3272639749827775
  0.6635979847955298  0.3290238018344382  0.3374261200710009
  0.0048986396821249  0.6661793843571004  0.3329841309533350
  0.3311198901564012  0.6649616017478124  0.3384795516498116
  0.6738220555181513  0.6698328635030393  0.3391104238762210
  0.0012199169224729  0.9962489692942498  0.3300524738545505
  0.3306587147887114  0.0006611567101515  0.3298742764727791
  0.6672479831440015  0.0080635483048752  0.3399470595603447
  0.9973796140960971  0.3298096345012596  0.6674886064003047
  0.3340057752607777  0.3351450229896926  0.6667488523585234
  0.6651130924546607  0.3356594153568793  0.6637414003005944
  0.0021776160189191  0.6721276150260991  0.6704725491983226
  0.3316102488370447  0.6679474046429377  0.6654524791455572
  0.6669927764736698  0.6611485879662382  0.6633080342869420
  0.0047351325231304  0.0007077696343600  0.6658586937306481
  0.3335686318422759  0.9963871843548944  0.6669712740932709
  0.6594084321699114  0.9965673725994790  0.6588802061957821
  0.0802622798732671  0.5815473836403768  0.1665717359990424
  0.4100394408118717  0.5841577408101486  0.1643098215317522
  0.7567745102463661  0.5798191022069119  0.1643528266445600
  0.0889618673979342  0.9160484782236153  0.1758350286763388
  0.4168888799283152  0.9255882192022469  0.1707046236279552
  0.7479355073196032  0.9113039661100473  0.1674323300431553
  0.0895770102710287  0.2557861695737316  0.1703914720940318
  0.4148858774890058  0.2480698403771626  0.1689474108758731
  0.7458139218023732  0.2496931568662433  0.1604648189738356
  0.0896341515160088  0.5889896978281044  0.5007174109273578
  0.4138722038932912  0.5850667669206118  0.4995126344459067
  0.7470789817093575  0.5823351056377248  0.4972407619200538
  0.0811955804722970  0.9123417440988035  0.5022006729493143
  0.4109798083655605  0.9131781810125901  0.4948784655212179
  0.7537260766045506  0.9184747414405479  0.5030342084301935
  0.0822606622251598  0.2449550344401743  0.4971299313465352
  0.4197949764057540  0.2490612693455390  0.4971163880854945
  0.7431701978035221  0.2496430057975161  0.4956436514710987
  0.0805467616164677  0.5868013569349912  0.8370063895378834
  0.4179371562281062  0.5811100599924259  0.8272184365593347
  0.7494905973108672  0.5792871207178436  0.8336098631048046
  0.0821402138683780  0.9118635480658668  0.8273647822370123
  0.4098988813180000  0.9196650191768754  0.8316445358754621
  0.7547662019140304  0.9172800612441705  0.8364168107225325
  0.0829784257544617  0.2519421504114874  0.8360530859735960
  0.4145155432189114  0.2461297670404363  0.8347142367393090
  0.7589095301085891  0.2543137643952420  0.8397068822813480
  0.1330714690120374  0.4607301007755780  0.0851124502173874
  0.4544237759765224  0.4570034661539069  0.0808932785946936
  0.8064888894621660  0.4575219784625730  0.0832126151559862
  0.1221244448567234  0.7901065747117926  0.0806512406262527
  0.4563924092441525  0.7941754917436583  0.0864732569063236
  0.8074796759604439  0.7925109102129539  0.0924396472677955
  0.1347613634168212  0.1257701705405623  0.0907657405591848
  0.4572616087866024  0.1268018570204674  0.0775611490566206
  0.7973621315829504  0.1277644060993381  0.0799824819499619
  0.1299680112704991  0.4628911657268517  0.4125456607153737
  0.4604450498125985  0.4552607772512758  0.4206324557206642
  0.7903149836432348  0.4563448161229999  0.4127352257360570
  0.1331316808986998  0.7921135872241294  0.4176706501143954
  0.4636137312277100  0.7863926210660281  0.4214671450789638
  0.8050050244095388  0.7919727388658018  0.4249987118276621
  0.1269371309088214  0.1250050698380818  0.4071990536317145
  0.4647105410205796  0.1221175673005348  0.4150089513596171
  0.8020007295860765  0.1263278117211470  0.4232359003888817
  0.1218681475311953  0.4592759521908150  0.7499926158612951
  0.4644343335537400  0.4585266333531308  0.7434212637420430
  0.8009761876649719  0.4545878317242042  0.7560228961816691
  0.1358209978999270  0.7914236783364856  0.7482589065983305
  0.4597991953833258  0.7942917609219293  0.7513347116207783
  0.7961243439663619  0.7874272110862535  0.7523657368682919
  0.1332147526666461  0.1259665418089568  0.7576109367248378
  0.4608456594840931  0.1228376760641652  0.7491893208148568
  0.7885218367379565  0.1226715466954076  0.7471568894481777
  0.2792230956304138  0.6177770789081194  0.0751618988058738
  0.6268097437607096  0.6254834807730347  0.0852073593863238
  0.9525096025654989  0.6251860046472828  0.0838267540356767
  0.2861858279365279  0.9666151798870430  0.0879735324137556
  0.6232102481056288  0.9579478020526437  0.0846142439627826
  0.9649599926313854  0.9577673138010425  0.0860945445191703
  0.2898401931238652  0.3018057810152399  0.0935424794467181
  0.6123976661522335  0.2833339677578337  0.0735723712415322
  0.9537335118366173  0.2915472860721735  0.0856230864217622
  0.2798177997495870  0.6255031480953264  0.4194575521951620
  0.6199299103851885  0.6305463545610408  0.4197101779341068
  0.9579856357196093  0.6324107303175808  0.4203729739165141
  0.2811401828746938  0.9482197640318475  0.4062849547265017
  0.6235255951508663  0.9640233003518901  0.4227202010039406
  0.9606353230714220  0.9675196490259879  0.4234343465506711
  0.2863454048626721  0.2847166540018478  0.4103633313282131
  0.6094122610473178  0.2911774968434173  0.4171355175010945
  0.9608564070394863  0.2939847762784424  0.4139045876599283
  0.2898357644466500  0.6328814353135854  0.7541523202787275
  0.6200562344652241  0.6167491234894200  0.7451044143155841
  0.9539850450739493  0.6315186651108320  0.7528573794386801
  0.2789794596200892  0.9590986016467227  0.7479287791442673
  0.6257886266166253  0.9577191658333248  0.7498636276744080
  0.9546189961283744  0.9585200103348228  0.7474921153299618
  0.2910259569577320  0.2932850339824284  0.7514583682850073
  0.6286565904313335  0.2900537068494771  0.7499318047372512
  0.9538060968739259  0.2972477282434838  0.7563528111823459
  0.2097083083986675  0.3896975220587677  0.2513247877097484
  0.5412563588670949  0.3759714044740221  0.2519212246071092
  0.8735600892900450  0.3778830772871871  0.2409771648157673
  0.2055055703609980  0.7115093752644555  0.2552123500209191
  0.5417676804723754  0.7065641973002386  0.2525505750861896
  0.8802075904867550  0.7113138696814261  0.2478033974857183
  0.2078558639391730  0.0507841636355337  0.2500262087779319
  0.5416934243257145  0.0543240751256846  0.2575714212499989
  0.8744623748850415  0.0398185009056533  0.2463183681349150
  0.2065537634937300  0.3765693839488193  0.5823340122830629
  0.5403913634821862  0.3834250835626989  0.5825939183812991
  0.8733107697791809  0.3739861844926011  0.5813205349514732
  0.2107939594851516  0.7216084474293893  0.5848867703892608
  0.5443003032200977  0.7086361028723260  0.5782620719724392
  0.8766697255761926  0.7077002100562808  0.5775607395338227
  0.2081170517852229  0.0403255804095579  0.5810217767613821
  0.5376249483421560  0.0410848192402113  0.5718699673174825
  0.8803631133072898  0.0464867511884108  0.5807574916120899
  0.2074193109346396  0.3814028221229933  0.9231709372433201
  0.5424485684073730  0.3734758514620822  0.9154572553721252
  0.8787018802305298  0.3875932293076545  0.9205966117964337
  0.2078072776898665  0.7137694531370613  0.9096668439142022
  0.5455913305762650  0.7073662650162191  0.9193484377431744
  0.8759502529455361  0.7078774108924719  0.9088983812402489
  0.2064636659637671  0.0444377401972389  0.9118299306148074
  0.5371369510504067  0.0473479403830339  0.9206613643980859
  0.8757365837076208  0.0513203513744571  0.9252782584554993
  0.0408280477941716  0.5312631537207437  0.2489004444031764
  0.3674833984583543  0.5379679226173266  0.2475956620624657
  0.7062917907674304  0.5405280005557103  0.2462549458907333
  0.0434680193434858  0.8620652215276863  0.2524485123936344
  0.3738782185280272  0.8708470774331047  0.2489788397814081
  0.7085688119583295  0.8768021245414843  0.2565033861760639
  0.0509826567742095  0.2089755643121833  0.2551798395305980
  0.3742227729979106  0.1983319935582060  0.2509353850788756
  0.7107518147763585  0.2101466415371291  0.2508032343980702
  0.0419519357080134  0.5448038152492458  0.5821913381669077
  0.3811817605848375  0.5397955951603208  0.5883496729501587
  0.7003561593590604  0.5290808748026024  0.5749515715224476
  0.0422506524839790  0.8645641630905985  0.5854903842732710
  0.3673812922907658  0.8664105350104805  0.5767546598034912
  0.7009660778198210  0.8656743421363728  0.5774155810904276
  0.0367812257863278  0.2022365525300316  0.5802608097418300
  0.3738795049734520  0.2067520770011981  0.5801529202457587
  0.6984426438693419  0.2009606994300697  0.5763531397385364
  0.0430656477024201  0.5311376060893167  0.9180862580842799
  0.3757731667517916  0.5427436976225195  0.9144846014247463
  0.7182479260663683  0.5400732941493800  0.9254441966277227
  0.0322454883377574  0.8686392888870316  0.9080965502918943
  0.3676484723693392  0.8691232281171395  0.9126923325082359
  0.7100611459672876  0.8741519115049599  0.9197249972662149
  0.0404605490566965  0.2108111211968762  0.9209455953298686
  0.3711712911487837  0.1958876717453748  0.9149158688275705
  0.7184055232047726  0.2073021729507829  0.9233061329642211

  0.00000000E+00  0.00000000E+00  0.00000000E+00
  0.00000000E+00  0.00000000E+00  0.00000000E+00
  0.00000000E+00  0.00000000E+00  0.00000000E+00
  0.00000000E+00  0.00000000E+00  0.00000000E+00
  0.00000000E+00  0.00000000E+00  0.00000000E+00
  0.00000000E+00  0.00000000E+00  0.00000000E+00
  0.00000000E+00  0.00000000E+00  0.00000000E+00
  0.00000000E+00  0.00000000E+00  0.00000000E+00
  0.00000000E+00  0.00000000E+00  0.00000000E+00
  0.00000000E+00  0.00000000E+00  0.00000000E+00
  0.00000000E+00  0.00000000E+00  0.00000000E+00
  0.00000000E+00  0.00000000E+00  0.00000000E+00
  0.00000000E+00  0.00000000E+00  0.00000000E+00
  0.00000000E+00  0.00000000E+00  0.00000000E+00
  0.00000000E+00  0.00000000E+00  0.00000000E+00
  0.00000000E+00  0.00000000E+00  0.00000000E+00
  0.00000000E+00  0.00000000E+00  0.00000000E+00
  0.00000000E+00  0.00000000E+00  0.00000000E+00
  0.00000000E+00  0.00000000E+00  0.00000000E+00
  0.00000000E+00  0.00000000E+00  0.00000000E+00
  0.00000000E+00  0.00000000E+00  0.00000000E+00
  0.00000000E+00  0.00000000E+00  0.00000000E+00
  0.00000000E+00  0.00000000E+00  0.00000000E+00
  0.00000000E+00  0.00000000E+00  0.00000000E+00
  0.00000000E+00  0.00000000E+00  0.00000000E+00
  0.00000000E+00  0.00000000E+00  0.00000000E+00
  0.00000000E+00  0.00000000E+00  0.00000000E+00
  0.00000000E+00  0.00000000E+00  0.00000000E+00
  0.00000000E+00  0.00000000E+00  0.00000000E+00
  0.00000000E+00  0.00000000E+00  0.00000000E+00
  0.00000000E+00  0.00000000E+00  0.00000000E+00
  0.00000000E+00  0.00000000E+00  0.00000000E+00
  0.00000000E+00  0.00000000E+00  0.00000000E+00
  0.00000000E+00  0.00000000E+00  0.00000000E+00
  0.00000000E+00  0.00000000E+00  0.00000000E+00
  0.00000000E+00  0.00000000E+00  0.00000000E+00
  0.00000000E+00  0.00000000E+00  0.00000000E+00
  0.00000000E+00  0.00000000E+00  0.00000000E+00
  0.00000000E+00  0.00000000E+00  0.00000000E+00
  0.00000000E+00  0.00000000E+00  0.00000000E+00
  0.00000000E+00  0.00000000E+00  0.00000000E+00
  0.00000000E+00  0.00000000E+00  0.00000000E+00
  0.00000000E+00  0.00000000E+00  0.00000000E+00
  0.00000000E+00  0.00000000E+00  0.00000000E+00
  0.00000000E+00  0.00000000E+00  0.00000000E+00
  0.00000000E+00  0.00000000E+00  0.00000000E+00
  0.00000000E+00  0.00000000E+00  0.00000000E+00
  0.00000000E+00  0.00000000E+00  0.00000000E+00
  0.00000000E+00  0.00000000E+00  0.00000000E+00
  0.00000000E+00  0.00000000E+00  0.00000000E+00
  0.00000000E+00  0.00000000E+00  0.00000000E+00
  0.00000000E+00  0.00000000E+00  0.00000000E+00
  0.00000000E+00  0.00000000E+00  0.00000000E+00
  0.00000000E+00  0.00000000E+00  0.00000000E+00
  0.00000000E+00  0.00000000E+00  0.00000000E+00
  0.00000000E+00  0.00000000E+00  0.00000000E+00
  0.00000000E+00  0.00000000E+00  0.00000000E+00
  0.00000000E+00  0.00000000E+00  0.00000000E+00
  0.00000000E+00  0.00000000E+00  0.00000000E+00
  0.00000000E+00  0.00000000E+00  0.00000000E+00
  0.00000000E+00  0.00000000E+00  0.00000000E+00
  0.00000000E+00  0.00000000E+00  0.00000000E+00
  0.00000000E+00  0.00000000E+00  0.00000000E+00
  0.00000000E+00  0.00000000E+00  0.00000000E+00
  0.00000000E+00  0.00000000E+00  0.00000000E+00
  0.00000000E+00  0.00000000E+00  0.00000000E+00
  0.00000000E+00  0.00000000E+00  0.00000000E+00
  0.00000000E+00  0.00000000E+00  0.00000000E+00
  0.00000000E+00  0.00000000E+00  0.00000000E+00
  0.00000000E+00  0.00000000E+00  0.00000000E+00
  0.00000000E+00  0.00000000E+00  0.00000000E+00
  0.00000000E+00  0.00000000E+00  0.00000000E+00
  0.00000000E+00  0.00000000E+00  0.00000000E+00
  0.00000000E+00  0.00000000E+00  0.00000000E+00
  0.00000000E+00  0.00000000E+00  0.00000000E+00
  0.00000000E+00  0.00000000E+00  0.00000000E+00
  0.00000000E+00  0.00000000E+00  0.00000000E+00
  0.00000000E+00  0.00000000E+00  0.00000000E+00
  0.00000000E+00  0.00000000E+00  0.00000000E+00
  0.00000000E+00  0.00000000E+00  0.00000000E+00
  0.00000000E+00  0.00000000E+00  0.00000000E+00
  0.00000000E+00  0.00000000E+00  0.00000000E+00
  0.00000000E+00  0.00000000E+00  0.00000000E+00
  0.00000000E+00  0.00000000E+00  0.00000000E+00
  0.00000000E+00  0.00000000E+00  0.00000000E+00
  0.00000000E+00  0.00000000E+00  0.00000000E+00
  0.00000000E+00  0.00000000E+00  0.00000000E+00
  0.00000000E+00  0.00000000E+00  0.00000000E+00
  0.00000000E+00  0.00000000E+00  0.00000000E+00
  0.00000000E+00  0.00000000E+00  0.00000000E+00
  0.00000000E+00  0.00000000E+00  0.00000000E+00
  0.00000000E+00  0.00000000E+00  0.00000000E+00
  0.00000000E+00  0.00000000E+00  0.00000000E+00
  0.00000000E+00  0.00000000E+00  0.00000000E+00
  0.00000000E+00  0.00000000E+00  0.00000000E+00
  0.00000000E+00  0.00000000E+00  0.00000000E+00
  0.00000000E+00  0.00000000E+00  0.00000000E+00
  0.00000000E+00  0.00000000E+00  0.00000000E+00
  0.00000000E+00  0.00000000E+00  0.00000000E+00
  0.00000000E+00  0.00000000E+00  0.00000000E+00
  0.00000000E+00  0.00000000E+00  0.00000000E+00
  0.00000000E+00  0.00000000E+00  0.00000000E+00
  0.00000000E+00  0.00000000E+00  0.00000000E+00
  0.00000000E+00  0.00000000E+00  0.00000000E+00
  0.00000000E+00  0.00000000E+00  0.00000000E+00
  0.00000000E+00  0.00000000E+00  0.00000000E+00
  0.00000000E+00  0.00000000E+00  0.00000000E+00
  0.00000000E+00  0.00000000E+00  0.00000000E+00
  0.00000000E+00  0.00000000E+00  0.00000000E+00
  0.00000000E+00  0.00000000E+00  0.00000000E+00
  0.00000000E+00  0.00000000E+00  0.00000000E+00
  0.00000000E+00  0.00000000E+00  0.00000000E+00
  0.00000000E+00  0.00000000E+00  0.00000000E+00
  0.00000000E+00  0.00000000E+00  0.00000000E+00
  0.00000000E+00  0.00000000E+00  0.00000000E+00
  0.00000000E+00  0.00000000E+00  0.00000000E+00
  0.00000000E+00  0.00000000E+00  0.00000000E+00
  0.00000000E+00  0.00000000E+00  0.00000000E+00
  0.00000000E+00  0.00000000E+00  0.00000000E+00
  0.00000000E+00  0.00000000E+00  0.00000000E+00
  0.00000000E+00  0.00000000E+00  0.00000000E+00
  0.00000000E+00  0.00000000E+00  0.00000000E+00
  0.00000000E+00  0.00000000E+00  0.00000000E+00
  0.00000000E+00  0.00000000E+00  0.00000000E+00
  0.00000000E+00  0.00000000E+00  0.00000000E+00
  0.00000000E+00  0.00000000E+00  0.00000000E+00
  0.00000000E+00  0.00000000E+00  0.00000000E+00
  0.00000000E+00  0.00000000E+00  0.00000000E+00
  0.00000000E+00  0.00000000E+00  0.00000000E+00
  0.00000000E+00  0.00000000E+00  0.00000000E+00
  0.00000000E+00  0.00000000E+00  0.00000000E+00
  0.00000000E+00  0.00000000E+00  0.00000000E+00
  0.00000000E+00  0.00000000E+00  0.00000000E+00
  0.00000000E+00  0.00000000E+00  0.00000000E+00
  0.00000000E+00  0.00000000E+00  0.00000000E+00
  0.00000000E+00  0.00000000E+00  0.00000000E+00
  0.00000000E+00  0.00000000E+00  0.00000000E+00
  0.00000000E+00  0.00000000E+00  0.00000000E+00
  0.00000000E+00  0.00000000E+00  0.00000000E+00
  0.00000000E+00  0.00000000E+00  0.00000000E+00
  0.00000000E+00  0.00000000E+00  0.00000000E+00
  0.00000000E+00  0.00000000E+00  0.00000000E+00
  0.00000000E+00  0.00000000E+00  0.00000000E+00
  0.00000000E+00  0.00000000E+00  0.00000000E+00
  0.00000000E+00  0.00000000E+00  0.00000000E+00
  0.00000000E+00  0.00000000E+00  0.00000000E+00
  0.00000000E+00  0.00000000E+00  0.00000000E+00
  0.00000000E+00  0.00000000E+00  0.00000000E+00
  0.00000000E+00  0.00000000E+00  0.00000000E+00
  0.00000000E+00  0.00000000E+00  0.00000000E+00
  0.00000000E+00  0.00000000E+00  0.00000000E+00
  0.00000000E+00  0.00000000E+00  0.00000000E+00
  0.00000000E+00  0.00000000E+00  0.00000000E+00
  0.00000000E+00  0.00000000E+00  0.00000000E+00
  0.00000000E+00  0.00000000E+00  0.00000000E+00
  0.00000000E+00  0.00000000E+00  0.00000000E+00
  0.00000000E+00  0.00000000E+00  0.00000000E+00
  0.00000000E+00  0.00000000E+00  0.00000000E+00
  0.00000000E+00  0.00000000E+00  0.00000000E+00
  0.00000000E+00  0.00000000E+00  0.00000000E+00
  0.00000000E+00  0.00000000E+00  0.00000000E+00
  0.00000000E+00  0.00000000E+00  0.00000000E+00
  0.00000000E+00  0.00000000E+00  0.00000000E+00
  0.00000000E+00  0.00000000E+00  0.00000000E+00
  0.00000000E+00  0.00000000E+00  0.00000000E+00
  0.00000000E+00  0.00000000E+00  0.00000000E+00
  0.00000000E+00  0.00000000E+00  0.00000000E+00
  0.00000000E+00  0.00000000E+00  0.00000000E+00
  0.00000000E+00  0.00000000E+00  0.00000000E+00
  0.00000000E+00  0.00000000E+00  0.00000000E+00
  0.00000000E+00  0.00000000E+00  0.00000000E+00
  0.00000000E+00  0.00000000E+00  0.00000000E+00
  0.00000000E+00  0.00000000E+00  0.00000000E+00
  0.00000000E+00  0.00000000E+00  0.00000000E+00
  0.00000000E+00  0.00000000E+00  0.00000000E+00
  0.00000000E+00  0.00000000E+00  0.00000000E+00
  0.00000000E+00  0.00000000E+00  0.00000000E+00
  0.00000000E+00  0.00000000E+00  0.00000000E+00
  0.00000000E+00  0.00000000E+00  0.00000000E+00
  0.00000000E+00  0.00000000E+00  0.00000000E+00
  0.00000000E+00  0.00000000E+00  0.00000000E+00
  0.00000000E+00  0.00000000E+00  0.00000000E+00
  0.00000000E+00  0.00000000E+00  0.00000000E+00
  0.00000000E+00  0.00000000E+00  0.00000000E+00
  0.00000000E+00  0.00000000E+00  0.00000000E+00
  0.00000000E+00  0.00000000E+00  0.00000000E+00
  0.00000000E+00  0.00000000E+00  0.00000000E+00
  0.00000000E+00  0.00000000E+00  0.00000000E+00
  0.00000000E+00  0.00000000E+00  0.00000000E+00
  0.00000000E+00  0.00000000E+00  0.00000000E+00
  0.00000000E+00  0.00000000E+00  0.00000000E+00
  0.00000000E+00  0.00000000E+00  0.00000000E+00
  0.00000000E+00  0.00000000E+00  0.00000000E+00
  0.00000000E+00  0.00000000E+00  0.00000000E+00
  0.00000000E+00  0.00000000E+00  0.00000000E+00
  0.00000000E+00  0.00000000E+00  0.00000000E+00
  0.00000000E+00  0.00000000E+00  0.00000000E+00
  0.00000000E+00  0.00000000E+00  0.00000000E+00
  0.00000000E+00  0.00000000E+00  0.00000000E+00
  0.00000000E+00  0.00000000E+00  0.00000000E+00
  0.00000000E+00  0.00000000E+00  0.00000000E+00
  0.00000000E+00  0.00000000E+00  0.00000000E+00
  0.00000000E+00  0.00000000E+00  0.00000000E+00
  0.00000000E+00  0.00000000E+00  0.00000000E+00
  0.00000000E+00  0.00000000E+00  0.00000000E+00
  0.00000000E+00  0.00000000E+00  0.00000000E+00
  0.00000000E+00  0.00000000E+00  0.00000000E+00
  0.00000000E+00  0.00000000E+00  0.00000000E+00
  0.00000000E+00  0.00000000E+00  0.00000000E+00
  0.00000000E+00  0.00000000E+00  0.00000000E+00
  0.00000000E+00  0.00000000E+00  0.00000000E+00
  0.00000000E+00  0.00000000E+00  0.00000000E+00
  0.00000000E+00  0.00000000E+00  0.00000000E+00
  0.00000000E+00  0.00000000E+00  0.00000000E+00
  0.00000000E+00  0.00000000E+00  0.00000000E+00
  0.00000000E+00  0.00000000E+00  0.00000000E+00
