In54 Cu6 Ag48 Se108                     
   1.0000000000000000     
    16.8065112507649275   -0.0001655853417814   -7.6400727240168260
    -3.4716971832714241   16.4331575159932193   -7.6393415570870928
     0.0171188381050763    0.0208820156484141   22.3377290250475191
   In   Cu   Ag   Se
    54     6    48   108
Direct
  0.1656049683748861  0.4992789957404327  0.0000060686129615
  0.5005752586294321  0.4988571846565080  0.9992074840158622
  0.8327742661156279  0.4966681791857397  0.9993314972729763
  0.1642017440007137  0.8366171186534572  0.0007985869826115
  0.5025633238085518  0.8357716258082917  0.9988697611587014
  0.8336107021751005  0.8396822612070451  0.0009584128192444
  0.1631256072222840  0.1639715594564279  0.9993391089413706
  0.5050011148839957  0.1645790761987556  0.0004914060031851
  0.8314308576137464  0.1647834288999945  0.0003014296221835
  0.1655122018056119  0.4983446984307776  0.3329832229275453
  0.5031863942726815  0.4995774857185822  0.3335682294283302
  0.8297995966304015  0.4973146662750452  0.3328564057269290
  0.1664412126242496  0.8336737725619869  0.3327858558824204
  0.5030431898123737  0.8323961313963011  0.3332144526959837
  0.8311993462721858  0.8344920231221025  0.3335474761552391
  0.1654052725536630  0.1673720468917068  0.3338258661141680
  0.5005353912859434  0.1661758351053422  0.3315125771757224
  0.8338896781021674  0.1685375578577322  0.3327027641188849
  0.1662098311998221  0.5007105746709897  0.6674086906844323
  0.5022052284238612  0.5018817401576783  0.6676102429006932
  0.8338165341424073  0.5040058492879069  0.6676351823486044
  0.1657829540290834  0.8333550506890006  0.6672885966509980
  0.5014081438102451  0.8333419493618521  0.6656070628517199
  0.8313633226087660  0.8330467280953044  0.6646965647413126
  0.1660148012799212  0.1657974756337737  0.6665248582213934
  0.5036955117205295  0.1652048761144300  0.6678981508604167
  0.8308239682503924  0.1635469432083099  0.6673570738557331
  0.2501073677754491  0.4158791590112259  0.1666726978216388
  0.5860597504422600  0.4141853828643960  0.1657424823535720
  0.9130236628475146  0.4132258120061252  0.1670650926425665
  0.2507930313348723  0.7504795879383721  0.1667247654989694
  0.5834770497132524  0.7494031301979120  0.1652246405749054
  0.9155933821795017  0.7492703803203824  0.1660755561744409
  0.2473483991017105  0.0825617348983272  0.1660610276121162
  0.5874914532395650  0.0859028410245699  0.1656225522211585
  0.9134004196573784  0.0865836365022759  0.1654063976746514
  0.2498819097280531  0.4165515668325384  0.5006015202020677
  0.5864455124834720  0.4183463855971894  0.4993349326647305
  0.9145217198044193  0.4198728918706891  0.5018096140025108
  0.2496128101166377  0.7496044245201290  0.4997412317854923
  0.5879252349974351  0.7502393988934486  0.4992712720369425
  0.9112778843395475  0.7481380418324477  0.4987777702552521
  0.2520746523208999  0.0842081686577174  0.5011718051182257
  0.5861421441414976  0.0809578251476140  0.4994944293992560
  0.9126576793749805  0.0815661640933456  0.4995208765462493
  0.2499359721795074  0.4167079226676194  0.8339250077264921
  0.5872339776228088  0.4140304972649815  0.8342271445888230
  0.9130359659878948  0.4127812413705669  0.8314530010682049
  0.2493176736494291  0.7507944503095558  0.8336945055182809
  0.5851966475909620  0.7548963739902632  0.8346577193332507
  0.9158233737741384  0.7554792443515765  0.8348703008641394
  0.2507091550056160  0.0827117945250038  0.8340141177327709
  0.5870730718553929  0.0828743830548220  0.8328620165082157
  0.9142936562014512  0.0828241127074705  0.8355146139055591
  0.9992581787453076  0.0015257707782226  0.0011807883448540
  0.6700173170322685  0.0056411384958466  0.0030188992549611
  0.7487761614936375  0.2463417828955272  0.1638002597107047
  0.7497210220767414  0.5839830642920987  0.4998512405820321
  0.7503505057229845  0.9159833094377490  0.4996845461907355
  0.7509736489902110  0.2488875630454928  0.8336411623211433
  0.9952967105662367  0.3332582548100902  0.9990632733663674
  0.3332510611143036  0.3292872934832047  0.9995943376558500
  0.6680993316776096  0.3261319433100809  0.9984173832901533
  0.9973883732502031  0.6680672677999979  0.9993544448838776
  0.3329995465906208  0.6695645777400046  0.9997221541656813
  0.6683846820844508  0.6696575204866448  0.0001496670119749
  0.3335256638722583  0.9997563101947549  0.0003022237904915
  0.9951716832068556  0.3355150245622340  0.3315464313207315
  0.3334616856012289  0.3333853030643823  0.3343514512664498
  0.6719862071943794  0.3338884789266814  0.3331417378218404
  0.9997519268860913  0.6670726904086379  0.3332903805677248
  0.3326074019179330  0.6645193311743540  0.3322097533606936
  0.6689763462628235  0.6695751556262834  0.3378530656088756
  0.0010047027082507  0.9999947694356166  0.3338776830533234
  0.3334015315243377  0.0001054511119776  0.3327270353171841
  0.6664229163185524  0.9983710413793006  0.3357394084106815
  0.0000614457260895  0.3338858827003364  0.6678671716871989
  0.3341812631948073  0.3329193452779506  0.6662949978625790
  0.6658980976541784  0.3320154330349041  0.6695921516230854
  0.9957346874018640  0.6685969989420641  0.6649669252156158
  0.3335509756188628  0.6671711780846650  0.6673698342719945
  0.6689337635642758  0.6637205833834159  0.6640765122644794
  0.9957196116444891  0.0008084999166300  0.6641317634551953
  0.3332391575610814  0.9988975807074496  0.6664640335689143
  0.6712108280001061  0.9997093341530316  0.6657602725922231
  0.0822299067721630  0.5822106623336722  0.1677522378408440
  0.4169752504353497  0.5808468669080185  0.1641388658948344
  0.7495287180393433  0.5825638031408502  0.1663768019115466
  0.0779837999989255  0.9187050638555121  0.1632188319241550
  0.4197025923408759  0.9187666309081308  0.1677324629319941
  0.7468677309869562  0.9200936632142600  0.1644390570975247
  0.0837150504072426  0.2459539087869302  0.1645281841034461
  0.4170745068699873  0.2496308236292180  0.1665150504252679
  0.0806935534278210  0.5841517507614356  0.4990533358703573
  0.4185076711543800  0.5844577172650745  0.5004383525820799
  0.0814056022386822  0.9158969084738473  0.5009552976784093
  0.4177434939664622  0.9137282457074249  0.4978088839824792
  0.0806077966186294  0.2503686483945273  0.5009826657214163
  0.4213078886618078  0.2501967897944652  0.5004315705282423
  0.7499862805775379  0.2509236131904302  0.5007520908398675
  0.0812625410205357  0.5833252680314231  0.8353246264169982
  0.4181273655031816  0.5807627024355213  0.8324295203909955
  0.7501062751366945  0.5840960355806999  0.8340508777633673
  0.0796800398100999  0.9169219950571872  0.8351699396871624
  0.4226613708474432  0.9215292367926367  0.8361790251228598
  0.7519177373375001  0.9201389249140846  0.8389748244443851
  0.0832391739027685  0.2489961409809283  0.8338426582575806
  0.4168316428270131  0.2497572265516936  0.8323607037483569
  0.1240720285047772  0.4568202762087950  0.0831107401604925
  0.4600792802428018  0.4545915632530892  0.0818769758295304
  0.7904651225575208  0.4562596180901792  0.0828979435006048
  0.1247170229132522  0.7924474663917493  0.0839852888104744
  0.4606622629422361  0.7936777415579570  0.0822057187977379
  0.7937087758635144  0.7952098815465618  0.0839698033260277
  0.1171289248518406  0.1156286607955792  0.0778520750513820
  0.4598508177428542  0.1248132510218483  0.0828271854318530
  0.7817733982081663  0.1266507360559501  0.0831905778628794
  0.1241466758269922  0.4578458837198909  0.4169097096506462
  0.4597419944921413  0.4582706656841253  0.4162700572094593
  0.7893588379898375  0.4675845508825489  0.4232939931254975
  0.1251710378088760  0.7921446085351249  0.4166029729307255
  0.4605784234084354  0.7882882819971329  0.4148263896395719
  0.7892247548614080  0.8007082289082135  0.4217381260151711
  0.1261029521685799  0.1261632271210686  0.4186231245937222
  0.4616158213944530  0.1231559154410746  0.4156893893657099
  0.7908690196147745  0.1258625715850528  0.4152832278377261
  0.1251418709360905  0.4594313452688397  0.7514266494998054
  0.4626058927188836  0.4561171328638807  0.7500978019174127
  0.7911097680597763  0.4590833633444049  0.7491216620385330
  0.1234674563222029  0.7926602427940637  0.7508964159285796
  0.4590951423693781  0.7929701927817945  0.7491803461430138
  0.7898624110009749  0.7945916536579389  0.7499978146721062
  0.1248844946646059  0.1232773726728098  0.7496908285698751
  0.4601940421338355  0.1234064511722863  0.7504187354054679
  0.7899619837135035  0.1321070909537241  0.7571227003238619
  0.2908715843983742  0.6245489586506423  0.0822947618747989
  0.6249555478267865  0.6245773069176366  0.0817996059717672
  0.9567750542368074  0.6231551655313083  0.0825675503778669
  0.2916094084371963  0.9588287957191497  0.0843682577190208
  0.6273554944426323  0.9630895654445979  0.0766185023698185
  0.9583823031075696  0.9658590517146237  0.0788930462010953
  0.2889060682008378  0.2886121072081949  0.0827428856266224
  0.6337335279957941  0.2875565671545885  0.0877871250146498
  0.9564003171675353  0.2899327289751028  0.0841028876237715
  0.2904145604378598  0.6237177417712232  0.4161858274409980
  0.6333262227340626  0.6215510939546931  0.4218016852848194
  0.9538146817692024  0.6240124765146149  0.4145880203654286
  0.2919553137184465  0.9582035534747675  0.4166586384093520
  0.6332363290239797  0.9539979141184247  0.4219907002702570
  0.9568660901536461  0.9586359714700379  0.4167944300737787
  0.2920826844132094  0.2911712438880869  0.4180201383420297
  0.6254438716461905  0.2915282984725920  0.4147632487540349
  0.9569406167653014  0.2953001538555924  0.4183057984974283
  0.2916847747359554  0.6253149160807965  0.7511706656423840
  0.6263418139461621  0.6285380443508188  0.7507702962174818
  0.9585008454198771  0.6296616165201243  0.7528527335155744
  0.2921586740948285  0.9575353385502936  0.7507883686250167
  0.6275035860289364  0.9573968869255509  0.7487929741266228
  0.9555423346353464  0.9590883329081521  0.7494886019736313
  0.2906237248538943  0.2913785864766822  0.7496084872022735
  0.6339546755879795  0.2869610789042980  0.7563252803486549
  0.9562972430636734  0.2885074310944802  0.7488883542892353
  0.2075298889344452  0.3736786790554163  0.2492825189038257
  0.5433482970832486  0.3738669264353334  0.2493001565225583
  0.8627634461030453  0.3660655561870527  0.2441454195686745
  0.2080909174847250  0.7083401384607413  0.2495511001826429
  0.5429169633898709  0.7068049163499524  0.2487726067705296
  0.8736922465454739  0.7094890330645214  0.2504949344663245
  0.2067800102277388  0.0419691657420103  0.2503963860191192
  0.5461222658187168  0.0435754475855248  0.2493790920448831
  0.8759006811998020  0.0430154553037241  0.2498935529586532
  0.2078268664170508  0.3753683919881610  0.5840907786965275
  0.5456655451853010  0.3779541924369667  0.5842987316335169
  0.8749561092391787  0.3773278129506039  0.5854093960018503
  0.2075863067668706  0.7087343234526031  0.5834048663071911
  0.5444708430831255  0.7096949877052978  0.5824645460205176
  0.8646408101197238  0.7012912143181964  0.5777867886504211
  0.2081548754584972  0.0414383980133195  0.5829942501193059
  0.5429274772841595  0.0399039264590400  0.5823515679100097
  0.8643396936526742  0.0341668091274627  0.5778679012005909
  0.2087494278253672  0.3746632231530569  0.9173737713833887
  0.5438211376322784  0.3736824642722851  0.9174698548434108
  0.8654978399752835  0.3664453812686403  0.9105163472949371
  0.2055698624135758  0.7111151988583089  0.9170755857021291
  0.5419737226571968  0.7091163764171498  0.9150618870746854
  0.8729084714159683  0.7128508948335011  0.9170914055580184
  0.2074702839833265  0.0411410718792595  0.9165527043047632
  0.5542140824416748  0.0411690163265774  0.9217239776045858
  0.8830390000884734  0.0404800698041541  0.9244340803730822
  0.0386027645178402  0.5383009654869539  0.2499129994352813
  0.3767232558195275  0.5399737033084975  0.2495259171068014
  0.7075415386160415  0.5423713668501691  0.2507381407617544
  0.0409117907451346  0.8742109966510441  0.2484531962560865
  0.3775757433994755  0.8747661536718425  0.2504673945832536
  0.7074218061515793  0.8753335939252622  0.2480448484919862
  0.0404757020083650  0.2099323240988440  0.2506866070334013
  0.3734452660450387  0.2069569580322295  0.2490218018332300
  0.7132243053533145  0.2117627721336746  0.2449301567538598
  0.0412983993561653  0.5430233396220743  0.5845050517674011
  0.3755800721502141  0.5414807552534953  0.5835153687406276
  0.7124480160092546  0.5439179050463068  0.5773428376975289
  0.0383689508174214  0.8722794107423155  0.5832935223033786
  0.3753581925337954  0.8739323150451170  0.5822967052501227
  0.7120582110232050  0.8775673496795591  0.5774107417760135
  0.0388815415738222  0.2058714418609284  0.5836115442568257
  0.3790672380491102  0.2080546581620268  0.5845729959905910
  0.7085631686540523  0.2079288860939599  0.5841106336453379
  0.0379733342273738  0.5387746950585921  0.9168602886162631
  0.3752847290299499  0.5415754363016561  0.9171321967846708
  0.7093909913193528  0.5413212062319346  0.9176490619539024
  0.0378188927041165  0.8849698462848963  0.9238884456906504
  0.3753015446258843  0.8752855796603214  0.9155488463218688
  0.7057503434260894  0.8864747365215493  0.9245304742809779
  0.0397365181054639  0.2074718189086227  0.9169125992941716
  0.3784918478124411  0.2055363634491130  0.9169587127276699
  0.7132987981468304  0.2078315573137814  0.9104566011320330

  0.00000000E+00  0.00000000E+00  0.00000000E+00
  0.00000000E+00  0.00000000E+00  0.00000000E+00
  0.00000000E+00  0.00000000E+00  0.00000000E+00
  0.00000000E+00  0.00000000E+00  0.00000000E+00
  0.00000000E+00  0.00000000E+00  0.00000000E+00
  0.00000000E+00  0.00000000E+00  0.00000000E+00
  0.00000000E+00  0.00000000E+00  0.00000000E+00
  0.00000000E+00  0.00000000E+00  0.00000000E+00
  0.00000000E+00  0.00000000E+00  0.00000000E+00
  0.00000000E+00  0.00000000E+00  0.00000000E+00
  0.00000000E+00  0.00000000E+00  0.00000000E+00
  0.00000000E+00  0.00000000E+00  0.00000000E+00
  0.00000000E+00  0.00000000E+00  0.00000000E+00
  0.00000000E+00  0.00000000E+00  0.00000000E+00
  0.00000000E+00  0.00000000E+00  0.00000000E+00
  0.00000000E+00  0.00000000E+00  0.00000000E+00
  0.00000000E+00  0.00000000E+00  0.00000000E+00
  0.00000000E+00  0.00000000E+00  0.00000000E+00
  0.00000000E+00  0.00000000E+00  0.00000000E+00
  0.00000000E+00  0.00000000E+00  0.00000000E+00
  0.00000000E+00  0.00000000E+00  0.00000000E+00
  0.00000000E+00  0.00000000E+00  0.00000000E+00
  0.00000000E+00  0.00000000E+00  0.00000000E+00
  0.00000000E+00  0.00000000E+00  0.00000000E+00
  0.00000000E+00  0.00000000E+00  0.00000000E+00
  0.00000000E+00  0.00000000E+00  0.00000000E+00
  0.00000000E+00  0.00000000E+00  0.00000000E+00
  0.00000000E+00  0.00000000E+00  0.00000000E+00
  0.00000000E+00  0.00000000E+00  0.00000000E+00
  0.00000000E+00  0.00000000E+00  0.00000000E+00
  0.00000000E+00  0.00000000E+00  0.00000000E+00
  0.00000000E+00  0.00000000E+00  0.00000000E+00
  0.00000000E+00  0.00000000E+00  0.00000000E+00
  0.00000000E+00  0.00000000E+00  0.00000000E+00
  0.00000000E+00  0.00000000E+00  0.00000000E+00
  0.00000000E+00  0.00000000E+00  0.00000000E+00
  0.00000000E+00  0.00000000E+00  0.00000000E+00
  0.00000000E+00  0.00000000E+00  0.00000000E+00
  0.00000000E+00  0.00000000E+00  0.00000000E+00
  0.00000000E+00  0.00000000E+00  0.00000000E+00
  0.00000000E+00  0.00000000E+00  0.00000000E+00
  0.00000000E+00  0.00000000E+00  0.00000000E+00
  0.00000000E+00  0.00000000E+00  0.00000000E+00
  0.00000000E+00  0.00000000E+00  0.00000000E+00
  0.00000000E+00  0.00000000E+00  0.00000000E+00
  0.00000000E+00  0.00000000E+00  0.00000000E+00
  0.00000000E+00  0.00000000E+00  0.00000000E+00
  0.00000000E+00  0.00000000E+00  0.00000000E+00
  0.00000000E+00  0.00000000E+00  0.00000000E+00
  0.00000000E+00  0.00000000E+00  0.00000000E+00
  0.00000000E+00  0.00000000E+00  0.00000000E+00
  0.00000000E+00  0.00000000E+00  0.00000000E+00
  0.00000000E+00  0.00000000E+00  0.00000000E+00
  0.00000000E+00  0.00000000E+00  0.00000000E+00
  0.00000000E+00  0.00000000E+00  0.00000000E+00
  0.00000000E+00  0.00000000E+00  0.00000000E+00
  0.00000000E+00  0.00000000E+00  0.00000000E+00
  0.00000000E+00  0.00000000E+00  0.00000000E+00
  0.00000000E+00  0.00000000E+00  0.00000000E+00
  0.00000000E+00  0.00000000E+00  0.00000000E+00
  0.00000000E+00  0.00000000E+00  0.00000000E+00
  0.00000000E+00  0.00000000E+00  0.00000000E+00
  0.00000000E+00  0.00000000E+00  0.00000000E+00
  0.00000000E+00  0.00000000E+00  0.00000000E+00
  0.00000000E+00  0.00000000E+00  0.00000000E+00
  0.00000000E+00  0.00000000E+00  0.00000000E+00
  0.00000000E+00  0.00000000E+00  0.00000000E+00
  0.00000000E+00  0.00000000E+00  0.00000000E+00
  0.00000000E+00  0.00000000E+00  0.00000000E+00
  0.00000000E+00  0.00000000E+00  0.00000000E+00
  0.00000000E+00  0.00000000E+00  0.00000000E+00
  0.00000000E+00  0.00000000E+00  0.00000000E+00
  0.00000000E+00  0.00000000E+00  0.00000000E+00
  0.00000000E+00  0.00000000E+00  0.00000000E+00
  0.00000000E+00  0.00000000E+00  0.00000000E+00
  0.00000000E+00  0.00000000E+00  0.00000000E+00
  0.00000000E+00  0.00000000E+00  0.00000000E+00
  0.00000000E+00  0.00000000E+00  0.00000000E+00
  0.00000000E+00  0.00000000E+00  0.00000000E+00
  0.00000000E+00  0.00000000E+00  0.00000000E+00
  0.00000000E+00  0.00000000E+00  0.00000000E+00
  0.00000000E+00  0.00000000E+00  0.00000000E+00
  0.00000000E+00  0.00000000E+00  0.00000000E+00
  0.00000000E+00  0.00000000E+00  0.00000000E+00
  0.00000000E+00  0.00000000E+00  0.00000000E+00
  0.00000000E+00  0.00000000E+00  0.00000000E+00
  0.00000000E+00  0.00000000E+00  0.00000000E+00
  0.00000000E+00  0.00000000E+00  0.00000000E+00
  0.00000000E+00  0.00000000E+00  0.00000000E+00
  0.00000000E+00  0.00000000E+00  0.00000000E+00
  0.00000000E+00  0.00000000E+00  0.00000000E+00
  0.00000000E+00  0.00000000E+00  0.00000000E+00
  0.00000000E+00  0.00000000E+00  0.00000000E+00
  0.00000000E+00  0.00000000E+00  0.00000000E+00
  0.00000000E+00  0.00000000E+00  0.00000000E+00
  0.00000000E+00  0.00000000E+00  0.00000000E+00
  0.00000000E+00  0.00000000E+00  0.00000000E+00
  0.00000000E+00  0.00000000E+00  0.00000000E+00
  0.00000000E+00  0.00000000E+00  0.00000000E+00
  0.00000000E+00  0.00000000E+00  0.00000000E+00
  0.00000000E+00  0.00000000E+00  0.00000000E+00
  0.00000000E+00  0.00000000E+00  0.00000000E+00
  0.00000000E+00  0.00000000E+00  0.00000000E+00
  0.00000000E+00  0.00000000E+00  0.00000000E+00
  0.00000000E+00  0.00000000E+00  0.00000000E+00
  0.00000000E+00  0.00000000E+00  0.00000000E+00
  0.00000000E+00  0.00000000E+00  0.00000000E+00
  0.00000000E+00  0.00000000E+00  0.00000000E+00
  0.00000000E+00  0.00000000E+00  0.00000000E+00
  0.00000000E+00  0.00000000E+00  0.00000000E+00
  0.00000000E+00  0.00000000E+00  0.00000000E+00
  0.00000000E+00  0.00000000E+00  0.00000000E+00
  0.00000000E+00  0.00000000E+00  0.00000000E+00
  0.00000000E+00  0.00000000E+00  0.00000000E+00
  0.00000000E+00  0.00000000E+00  0.00000000E+00
  0.00000000E+00  0.00000000E+00  0.00000000E+00
  0.00000000E+00  0.00000000E+00  0.00000000E+00
  0.00000000E+00  0.00000000E+00  0.00000000E+00
  0.00000000E+00  0.00000000E+00  0.00000000E+00
  0.00000000E+00  0.00000000E+00  0.00000000E+00
  0.00000000E+00  0.00000000E+00  0.00000000E+00
  0.00000000E+00  0.00000000E+00  0.00000000E+00
  0.00000000E+00  0.00000000E+00  0.00000000E+00
  0.00000000E+00  0.00000000E+00  0.00000000E+00
  0.00000000E+00  0.00000000E+00  0.00000000E+00
  0.00000000E+00  0.00000000E+00  0.00000000E+00
  0.00000000E+00  0.00000000E+00  0.00000000E+00
  0.00000000E+00  0.00000000E+00  0.00000000E+00
  0.00000000E+00  0.00000000E+00  0.00000000E+00
  0.00000000E+00  0.00000000E+00  0.00000000E+00
  0.00000000E+00  0.00000000E+00  0.00000000E+00
  0.00000000E+00  0.00000000E+00  0.00000000E+00
  0.00000000E+00  0.00000000E+00  0.00000000E+00
  0.00000000E+00  0.00000000E+00  0.00000000E+00
  0.00000000E+00  0.00000000E+00  0.00000000E+00
  0.00000000E+00  0.00000000E+00  0.00000000E+00
  0.00000000E+00  0.00000000E+00  0.00000000E+00
  0.00000000E+00  0.00000000E+00  0.00000000E+00
  0.00000000E+00  0.00000000E+00  0.00000000E+00
  0.00000000E+00  0.00000000E+00  0.00000000E+00
  0.00000000E+00  0.00000000E+00  0.00000000E+00
  0.00000000E+00  0.00000000E+00  0.00000000E+00
  0.00000000E+00  0.00000000E+00  0.00000000E+00
  0.00000000E+00  0.00000000E+00  0.00000000E+00
  0.00000000E+00  0.00000000E+00  0.00000000E+00
  0.00000000E+00  0.00000000E+00  0.00000000E+00
  0.00000000E+00  0.00000000E+00  0.00000000E+00
  0.00000000E+00  0.00000000E+00  0.00000000E+00
  0.00000000E+00  0.00000000E+00  0.00000000E+00
  0.00000000E+00  0.00000000E+00  0.00000000E+00
  0.00000000E+00  0.00000000E+00  0.00000000E+00
  0.00000000E+00  0.00000000E+00  0.00000000E+00
  0.00000000E+00  0.00000000E+00  0.00000000E+00
  0.00000000E+00  0.00000000E+00  0.00000000E+00
  0.00000000E+00  0.00000000E+00  0.00000000E+00
  0.00000000E+00  0.00000000E+00  0.00000000E+00
  0.00000000E+00  0.00000000E+00  0.00000000E+00
  0.00000000E+00  0.00000000E+00  0.00000000E+00
  0.00000000E+00  0.00000000E+00  0.00000000E+00
  0.00000000E+00  0.00000000E+00  0.00000000E+00
  0.00000000E+00  0.00000000E+00  0.00000000E+00
  0.00000000E+00  0.00000000E+00  0.00000000E+00
  0.00000000E+00  0.00000000E+00  0.00000000E+00
  0.00000000E+00  0.00000000E+00  0.00000000E+00
  0.00000000E+00  0.00000000E+00  0.00000000E+00
  0.00000000E+00  0.00000000E+00  0.00000000E+00
  0.00000000E+00  0.00000000E+00  0.00000000E+00
  0.00000000E+00  0.00000000E+00  0.00000000E+00
  0.00000000E+00  0.00000000E+00  0.00000000E+00
  0.00000000E+00  0.00000000E+00  0.00000000E+00
  0.00000000E+00  0.00000000E+00  0.00000000E+00
  0.00000000E+00  0.00000000E+00  0.00000000E+00
  0.00000000E+00  0.00000000E+00  0.00000000E+00
  0.00000000E+00  0.00000000E+00  0.00000000E+00
  0.00000000E+00  0.00000000E+00  0.00000000E+00
  0.00000000E+00  0.00000000E+00  0.00000000E+00
  0.00000000E+00  0.00000000E+00  0.00000000E+00
  0.00000000E+00  0.00000000E+00  0.00000000E+00
  0.00000000E+00  0.00000000E+00  0.00000000E+00
  0.00000000E+00  0.00000000E+00  0.00000000E+00
  0.00000000E+00  0.00000000E+00  0.00000000E+00
  0.00000000E+00  0.00000000E+00  0.00000000E+00
  0.00000000E+00  0.00000000E+00  0.00000000E+00
  0.00000000E+00  0.00000000E+00  0.00000000E+00
  0.00000000E+00  0.00000000E+00  0.00000000E+00
  0.00000000E+00  0.00000000E+00  0.00000000E+00
  0.00000000E+00  0.00000000E+00  0.00000000E+00
  0.00000000E+00  0.00000000E+00  0.00000000E+00
  0.00000000E+00  0.00000000E+00  0.00000000E+00
  0.00000000E+00  0.00000000E+00  0.00000000E+00
  0.00000000E+00  0.00000000E+00  0.00000000E+00
  0.00000000E+00  0.00000000E+00  0.00000000E+00
  0.00000000E+00  0.00000000E+00  0.00000000E+00
  0.00000000E+00  0.00000000E+00  0.00000000E+00
  0.00000000E+00  0.00000000E+00  0.00000000E+00
  0.00000000E+00  0.00000000E+00  0.00000000E+00
  0.00000000E+00  0.00000000E+00  0.00000000E+00
  0.00000000E+00  0.00000000E+00  0.00000000E+00
  0.00000000E+00  0.00000000E+00  0.00000000E+00
  0.00000000E+00  0.00000000E+00  0.00000000E+00
  0.00000000E+00  0.00000000E+00  0.00000000E+00
  0.00000000E+00  0.00000000E+00  0.00000000E+00
  0.00000000E+00  0.00000000E+00  0.00000000E+00
  0.00000000E+00  0.00000000E+00  0.00000000E+00
  0.00000000E+00  0.00000000E+00  0.00000000E+00
  0.00000000E+00  0.00000000E+00  0.00000000E+00
  0.00000000E+00  0.00000000E+00  0.00000000E+00
  0.00000000E+00  0.00000000E+00  0.00000000E+00
  0.00000000E+00  0.00000000E+00  0.00000000E+00
  0.00000000E+00  0.00000000E+00  0.00000000E+00
  0.00000000E+00  0.00000000E+00  0.00000000E+00
  0.00000000E+00  0.00000000E+00  0.00000000E+00
  0.00000000E+00  0.00000000E+00  0.00000000E+00
  0.00000000E+00  0.00000000E+00  0.00000000E+00
  0.00000000E+00  0.00000000E+00  0.00000000E+00
  0.00000000E+00  0.00000000E+00  0.00000000E+00
