In42 Ga12 Cu48 Ag6 Se108                
   1.0000000000000000     
    16.0555607638971729    0.0003006977960068   -7.1826236276727977
    -3.2130778253732797   15.7401413411389779   -7.1732482527907031
     0.0128724352312789    0.0138345304573197   21.5969042581576716
   In   Ga   Cu   Ag   Se
    42    12    48     6   108
Direct
  0.4974000460467920  0.4973621440190570  0.0014685797075131
  0.1645005942993620  0.8335642216299775  0.0001589198150356
  0.5026190805696800  0.8358438624854259  0.0013264592014650
  0.1645409168758150  0.1679873641407070  0.0002508147253124
  0.5005009276102399  0.1681181932733153  0.9995386329775968
  0.1622782346339378  0.4975183765935967  0.3304970599205035
  0.4998406281750221  0.5012696519506292  0.3326128270329320
  0.8380648222077127  0.4993590485855179  0.3333817055987680
  0.4998441962707005  0.8326870581678989  0.3323392155709257
  0.8277614958578923  0.8309607559597580  0.3291193797156424
  0.1647636631142717  0.1661048258319084  0.3323839008597673
  0.5011180838551539  0.1662282742338945  0.3354898148091792
  0.8350954094671721  0.1691812383569555  0.3340745141600081
  0.1621829082271802  0.4963718628380889  0.6658358187816944
  0.5002736347347039  0.5022176477396059  0.6686815009903668
  0.8381306447564398  0.4991665398626139  0.6650338275335415
  0.1664696711617850  0.8338188447676842  0.6684034568271002
  0.5017215162225952  0.8361191107783057  0.6680998215145095
  0.8352029843124598  0.8351986410832737  0.6674833073318140
  0.1666403892933772  0.1716848555119910  0.6697200851553262
  0.4990310672273637  0.1630781193870092  0.6639886955097083
  0.2496527839450593  0.4185068262678371  0.1651793157444175
  0.5845329043101160  0.4164318675583871  0.1678469795273685
  0.2451224862621402  0.7458732528053105  0.1662656476735833
  0.9194501497574947  0.7487696862577593  0.1653188854610974
  0.2475418218228853  0.0848275387169934  0.1670030216008769
  0.5860976263390967  0.0882583111513426  0.1672012339180995
  0.9143918461326592  0.0817555882517169  0.1629129296810135
  0.2511298797831998  0.4160148606022318  0.5004972164118229
  0.5829274268868332  0.4165902348559953  0.4974879405347323
  0.2502628023633733  0.7507258856787402  0.4978173772444450
  0.5840937963474957  0.7496179052216263  0.4987688661391232
  0.9153822913251304  0.7503585883516521  0.4999711559853068
  0.2470906179011791  0.0809020393853217  0.4981018199955969
  0.9143984941110617  0.0849431938817773  0.5009482423436040
  0.5881804770899564  0.4123127665138853  0.8357898451844505
  0.9175042251202257  0.4167003277361658  0.8355274483831963
  0.2483178402166715  0.7512202555222984  0.8347579057977725
  0.9179822185958031  0.7512196653886534  0.8358452239999608
  0.2495710242058635  0.0846408734031669  0.8327558386533553
  0.5877155195410282  0.0857251899017442  0.8362995410699483
  0.9149670975186339  0.0878952816719973  0.8351915037222284
  0.1658643142397551  0.4993155614099294  0.9989983762507109
  0.8368441980335533  0.4962107229488595  0.0020759650587863
  0.8351467997221249  0.8351591014063260  0.0003578418678600
  0.8355070679360921  0.1710652175161940  0.0032147980026878
  0.1663242241997978  0.8309208209724233  0.3310390287047227
  0.8312347239026039  0.1640566614786110  0.6642941393300390
  0.9150654193488919  0.4148224748431204  0.1626301748894718
  0.5833349036760893  0.7454773109399468  0.1652712289592628
  0.9163447402576637  0.4157090253725428  0.4993096949511795
  0.5850704645295366  0.0802831200884810  0.4989827214528617
  0.2464600493273039  0.4153297132892675  0.8353295269344869
  0.5874996650315509  0.7544733442740394  0.8364267134908943
  0.9995062778425066  0.3367772315588411  0.0040337829275501
  0.3263668576046612  0.3345546119820355  0.9967453565898481
  0.6743068547479751  0.3350234932535940  0.0025006278576498
  0.9991227575176325  0.6630487458842325  0.9993500744008870
  0.3288275716069862  0.6590975969695663  0.0002914131976084
  0.9965377986797961  0.0016161883827976  0.0004923064981242
  0.3324617675321520  0.0033675485226823  0.9979721509117923
  0.6703034347407524  0.9985141103587196  0.9976749050865195
  0.9978559001837937  0.3353509808055861  0.3322348586526260
  0.3312722709718656  0.3329204405692607  0.3314354841326832
  0.6709055816914571  0.3337153416184719  0.3352195468355106
  0.9981660370222514  0.6602622915529679  0.3264878956734023
  0.3289625618212639  0.6675602107876273  0.3316917580780654
  0.6658154681215223  0.6684522754679207  0.3307498090506087
  0.0006428239020480  0.9984933008991348  0.3291866528146912
  0.3328870167459144  0.0005373348569435  0.3378821718574514
  0.6675140814986449  0.9953374276194040  0.3324719468894131
  0.9994124953739529  0.3324774976358142  0.6671778068220533
  0.3297402861528340  0.3278442972976165  0.6669556438350170
  0.9993610491638449  0.6634089292897727  0.6659216127737864
  0.3364809628597527  0.6727953146276278  0.6669818177123688
  0.9977249334054505  0.0061755485406962  0.6711721906385009
  0.3388283963495127  0.0016401137097404  0.6717406186831951
  0.6666956001779809  0.0035016835390564  0.6647521485642116
  0.0798542858273876  0.5805313739858917  0.1631105375950810
  0.4168250993968954  0.5842179086086432  0.1660212197591164
  0.7527023522121894  0.5787612442201890  0.1662124115351560
  0.0812982285947541  0.9155678648716332  0.1666494427484722
  0.7484659800345455  0.9188323855363123  0.1677113612110972
  0.0779191184526127  0.2520961379778583  0.1653562878545287
  0.4171592338736616  0.2516312150715763  0.1678710598343969
  0.7543031011832610  0.2511366498865684  0.1638375076852299
  0.0824095096869186  0.5830508719286911  0.5019138261544782
  0.4117194626243901  0.5805320829423266  0.4968442298964746
  0.7526211676796635  0.5803113572769760  0.4955299063258423
  0.4160786193203307  0.9155882542327163  0.4975380145491215
  0.7492057675317128  0.9212368036093324  0.5011410817997941
  0.0804326730140161  0.2524452195006290  0.4984606815848167
  0.4152765468767612  0.2453080972768120  0.4976317624738726
  0.7529327967253039  0.2487730655884661  0.4997442873047788
  0.0862202210825913  0.5802882383977135  0.8360930049468109
  0.7562166920405247  0.5893533184930391  0.8423345354913891
  0.0825891059375223  0.9169503079479000  0.8338890650605109
  0.4192880878665335  0.9146392923933959  0.8345333174312231
  0.7514332778923958  0.9251817594558247  0.8408519590542980
  0.0785956867863646  0.2550847475573690  0.8330461829305591
  0.4171617907387883  0.2533572124306858  0.8348957433394872
  0.7570968605311705  0.2483358642693574  0.8381860940764909
  0.6719837691928845  0.6679530907234152  0.0036790319653264
  0.6705283346755166  0.3303246941957738  0.6648703441498256
  0.6671222954855764  0.6672459110725057  0.6712647326620456
  0.4184361779045815  0.9083959464607716  0.1616291614314207
  0.0829563902569674  0.9147975741273555  0.4972084459891519
  0.4128050094402695  0.5800499093912634  0.8305939701821643
  0.1167364119444727  0.4609009265932613  0.0783192585931900
  0.4457615293083776  0.4559370823768987  0.0848554642542396
  0.7911931318071197  0.4584099829492772  0.0836246688879996
  0.1118165617372711  0.7900577482530977  0.0827883584011389
  0.4561070274232719  0.7730724863147884  0.0773965827644858
  0.7941588371751820  0.8050243158346220  0.0862939393632018
  0.1111143461221431  0.1269010132489967  0.0838481962453130
  0.4478492411447732  0.1270623255837720  0.0833821139371338
  0.7832916330252644  0.1269266881510731  0.0771895220745407
  0.1143975862977555  0.4584914020731858  0.4176693788037511
  0.4462381998389802  0.4582075557364647  0.4146918021377672
  0.7904580981876421  0.4550688976242512  0.4190938738425132
  0.1162545763749563  0.7832854053211804  0.4035787361745733
  0.4471161740516791  0.7896528425439016  0.4147709341272545
  0.7796615545596453  0.7946571854254643  0.4174623013014269
  0.1118321728514218  0.1256099592429294  0.4162634115927233
  0.4555377780826362  0.1205647530091341  0.4218437506612673
  0.7797729847419177  0.1229782554355552  0.4135431619342924
  0.1193968746714162  0.4540399677150191  0.7551011779651660
  0.4517547099176156  0.4456644086042019  0.7457132864446123
  0.7898469173977958  0.4696108121086198  0.7558671674620783
  0.1119273729137689  0.7910984125611904  0.7502157338109328
  0.4585984324834556  0.7915898071191876  0.7558653178531074
  0.7891251584677690  0.8043305961496117  0.7586246155728986
  0.1135355058479135  0.1295363280413540  0.7524012433202643
  0.4508639856397849  0.1277223664126197  0.7531885364072650
  0.7831449941799065  0.1282738216490742  0.7450278992637749
  0.2934282610889483  0.6172266117588947  0.0809130347508216
  0.6320917487389934  0.6247207562028194  0.0917366798047823
  0.9615483768158484  0.6163652456504920  0.0775016102979649
  0.2956597127376241  0.9617074909063987  0.0784397950599924
  0.6374538720831069  0.9619206031528975  0.0836613955387477
  0.9632847843671541  0.9522821130666443  0.0790705873353019
  0.3018565056715872  0.2918950780526046  0.0829277764391776
  0.6372684069724386  0.2929482129746290  0.0831127366247344
  0.9602743457383767  0.2933764177371145  0.0835356980091220
  0.2987053526861629  0.6223616667514023  0.4134633026180339
  0.6373490110880695  0.6248529127340205  0.4148766906389696
  0.9717308186059626  0.6276576619302858  0.4171437677619423
  0.2933638228045155  0.9497711211779105  0.4127646249301478
  0.6324095275728254  0.9626746448382590  0.4188196039992249
  0.9578227251030640  0.9605514201241832  0.4088708247333273
  0.3019880749121100  0.2899177475455872  0.4152049178156716
  0.6373450176232680  0.2910067265128973  0.4173113334687599
  0.9665463934116261  0.3003232189195160  0.4198733936261121
  0.2907719723039150  0.6276614965694591  0.7417122458438641
  0.6338790105309116  0.6295446817395387  0.7646992283991096
  0.9729891545360019  0.6256322698328418  0.7537318461555031
  0.3040409480403881  0.9576587017897538  0.7519639828369833
  0.6383735388671354  0.9613494161183453  0.7501383886068496
  0.9690633944985549  0.9625222095482471  0.7538394206008050
  0.2996290454599588  0.3005018176783878  0.7581755442610998
  0.6370714244742999  0.2838505974186063  0.7548321555382245
  0.9570505751912464  0.2852822763719018  0.7431588244053842
  0.2061183081773166  0.3636212020571179  0.2470411301125992
  0.5439810519633355  0.3645666568331691  0.2522587128262543
  0.8782289138000223  0.3674939935198864  0.2431012317250776
  0.2012697717573317  0.7004739203987427  0.2522275150725761
  0.5422485850156633  0.6998742734912895  0.2445957899659206
  0.8739684145392559  0.6971677409268295  0.2476662021442237
  0.2079983662420730  0.0300569955101651  0.2504849772871154
  0.5494408278238012  0.0372154857201892  0.2530883707886460
  0.8748012762181148  0.0324833037969796  0.2491614459634519
  0.2084793543189676  0.3632029073050873  0.5837243203308944
  0.5346473211409659  0.3667750645291790  0.5780312862085708
  0.8788311863483358  0.3646369983744080  0.5782229601204065
  0.2080701738365107  0.6995577739526908  0.5824331596741175
  0.5329585249381736  0.6986161646445623  0.5775587265870925
  0.8749432404096638  0.6971576572077680  0.5837396799686516
  0.2169634657603012  0.0400480422201284  0.5921219242335809
  0.5423846670175365  0.0310620648721809  0.5760396996687547
  0.8731384820640642  0.0376953584758084  0.5880982189146522
  0.2033285690928039  0.3723879691890275  0.9158293156604742
  0.5453520413422339  0.3645478456865732  0.9208215199919039
  0.8750509687453771  0.3701129789261088  0.9222390441747947
  0.2093129405466385  0.6979604133344708  0.9190312871202408
  0.5443883575888222  0.7083829731817701  0.9120268019502689
  0.8762505992768226  0.7071690924598286  0.9244947412779183
  0.2064176113445555  0.0327853881308116  0.9156559164197375
  0.5432066050502868  0.0310931603891333  0.9172175380321903
  0.8734522095830002  0.0437140783321084  0.9241213117277809
  0.0332216431879999  0.5409492986912596  0.2405677355118740
  0.3746175641572336  0.5550194068850587  0.2501338324094675
  0.7108146211648787  0.5518311951562609  0.2514372847714696
  0.0491624140161093  0.8818573553326061  0.2541424697804686
  0.3692813340087824  0.8817921135676272  0.2528986029987692
  0.6978435799571798  0.8759450196752567  0.2416389997118529
  0.0391386532330742  0.2188066234681543  0.2495233074930283
  0.3756666707633514  0.2184923087394637  0.2507952018369366
  0.7126908111610817  0.2225672486472021  0.2487206360240890
  0.0334603790045591  0.5438428398127684  0.5788506345910491
  0.3749294799554121  0.5539021782777525  0.5843174357803349
  0.7122553843592527  0.5470388030877373  0.5784756472706221
  0.0380445544226120  0.8873343523447517  0.5901832647767264
  0.3757409915854879  0.8877994479859694  0.5838407229617602
  0.7085946355359596  0.8862242616386240  0.5834555587571231
  0.0409458629891475  0.2194984543074057  0.5824378441885685
  0.3729909343806952  0.2164399605930782  0.5819424927188308
  0.7112447981291794  0.2006917936876320  0.5760505373471716
  0.0481370542985928  0.5490673726570279  0.9215166204300189
  0.3641667205383001  0.5402825756303926  0.9160019969441251
  0.7207867807883304  0.5407106064646712  0.9200494511820736
  0.0409442169826946  0.8883831157979358  0.9181144682434308
  0.3749496294248331  0.8865531205294488  0.9180090087252424
  0.7114734164268484  0.8781454215765265  0.9179084407586373
  0.0404700007027117  0.2235983956275902  0.9186077186290262
  0.3739416708125418  0.2211043835129018  0.9170610154188807
  0.7184465026719238  0.2176256136338495  0.9231051252827811

  0.00000000E+00  0.00000000E+00  0.00000000E+00
  0.00000000E+00  0.00000000E+00  0.00000000E+00
  0.00000000E+00  0.00000000E+00  0.00000000E+00
  0.00000000E+00  0.00000000E+00  0.00000000E+00
  0.00000000E+00  0.00000000E+00  0.00000000E+00
  0.00000000E+00  0.00000000E+00  0.00000000E+00
  0.00000000E+00  0.00000000E+00  0.00000000E+00
  0.00000000E+00  0.00000000E+00  0.00000000E+00
  0.00000000E+00  0.00000000E+00  0.00000000E+00
  0.00000000E+00  0.00000000E+00  0.00000000E+00
  0.00000000E+00  0.00000000E+00  0.00000000E+00
  0.00000000E+00  0.00000000E+00  0.00000000E+00
  0.00000000E+00  0.00000000E+00  0.00000000E+00
  0.00000000E+00  0.00000000E+00  0.00000000E+00
  0.00000000E+00  0.00000000E+00  0.00000000E+00
  0.00000000E+00  0.00000000E+00  0.00000000E+00
  0.00000000E+00  0.00000000E+00  0.00000000E+00
  0.00000000E+00  0.00000000E+00  0.00000000E+00
  0.00000000E+00  0.00000000E+00  0.00000000E+00
  0.00000000E+00  0.00000000E+00  0.00000000E+00
  0.00000000E+00  0.00000000E+00  0.00000000E+00
  0.00000000E+00  0.00000000E+00  0.00000000E+00
  0.00000000E+00  0.00000000E+00  0.00000000E+00
  0.00000000E+00  0.00000000E+00  0.00000000E+00
  0.00000000E+00  0.00000000E+00  0.00000000E+00
  0.00000000E+00  0.00000000E+00  0.00000000E+00
  0.00000000E+00  0.00000000E+00  0.00000000E+00
  0.00000000E+00  0.00000000E+00  0.00000000E+00
  0.00000000E+00  0.00000000E+00  0.00000000E+00
  0.00000000E+00  0.00000000E+00  0.00000000E+00
  0.00000000E+00  0.00000000E+00  0.00000000E+00
  0.00000000E+00  0.00000000E+00  0.00000000E+00
  0.00000000E+00  0.00000000E+00  0.00000000E+00
  0.00000000E+00  0.00000000E+00  0.00000000E+00
  0.00000000E+00  0.00000000E+00  0.00000000E+00
  0.00000000E+00  0.00000000E+00  0.00000000E+00
  0.00000000E+00  0.00000000E+00  0.00000000E+00
  0.00000000E+00  0.00000000E+00  0.00000000E+00
  0.00000000E+00  0.00000000E+00  0.00000000E+00
  0.00000000E+00  0.00000000E+00  0.00000000E+00
  0.00000000E+00  0.00000000E+00  0.00000000E+00
  0.00000000E+00  0.00000000E+00  0.00000000E+00
  0.00000000E+00  0.00000000E+00  0.00000000E+00
  0.00000000E+00  0.00000000E+00  0.00000000E+00
  0.00000000E+00  0.00000000E+00  0.00000000E+00
  0.00000000E+00  0.00000000E+00  0.00000000E+00
  0.00000000E+00  0.00000000E+00  0.00000000E+00
  0.00000000E+00  0.00000000E+00  0.00000000E+00
  0.00000000E+00  0.00000000E+00  0.00000000E+00
  0.00000000E+00  0.00000000E+00  0.00000000E+00
  0.00000000E+00  0.00000000E+00  0.00000000E+00
  0.00000000E+00  0.00000000E+00  0.00000000E+00
  0.00000000E+00  0.00000000E+00  0.00000000E+00
  0.00000000E+00  0.00000000E+00  0.00000000E+00
  0.00000000E+00  0.00000000E+00  0.00000000E+00
  0.00000000E+00  0.00000000E+00  0.00000000E+00
  0.00000000E+00  0.00000000E+00  0.00000000E+00
  0.00000000E+00  0.00000000E+00  0.00000000E+00
  0.00000000E+00  0.00000000E+00  0.00000000E+00
  0.00000000E+00  0.00000000E+00  0.00000000E+00
  0.00000000E+00  0.00000000E+00  0.00000000E+00
  0.00000000E+00  0.00000000E+00  0.00000000E+00
  0.00000000E+00  0.00000000E+00  0.00000000E+00
  0.00000000E+00  0.00000000E+00  0.00000000E+00
  0.00000000E+00  0.00000000E+00  0.00000000E+00
  0.00000000E+00  0.00000000E+00  0.00000000E+00
  0.00000000E+00  0.00000000E+00  0.00000000E+00
  0.00000000E+00  0.00000000E+00  0.00000000E+00
  0.00000000E+00  0.00000000E+00  0.00000000E+00
  0.00000000E+00  0.00000000E+00  0.00000000E+00
  0.00000000E+00  0.00000000E+00  0.00000000E+00
  0.00000000E+00  0.00000000E+00  0.00000000E+00
  0.00000000E+00  0.00000000E+00  0.00000000E+00
  0.00000000E+00  0.00000000E+00  0.00000000E+00
  0.00000000E+00  0.00000000E+00  0.00000000E+00
  0.00000000E+00  0.00000000E+00  0.00000000E+00
  0.00000000E+00  0.00000000E+00  0.00000000E+00
  0.00000000E+00  0.00000000E+00  0.00000000E+00
  0.00000000E+00  0.00000000E+00  0.00000000E+00
  0.00000000E+00  0.00000000E+00  0.00000000E+00
  0.00000000E+00  0.00000000E+00  0.00000000E+00
  0.00000000E+00  0.00000000E+00  0.00000000E+00
  0.00000000E+00  0.00000000E+00  0.00000000E+00
  0.00000000E+00  0.00000000E+00  0.00000000E+00
  0.00000000E+00  0.00000000E+00  0.00000000E+00
  0.00000000E+00  0.00000000E+00  0.00000000E+00
  0.00000000E+00  0.00000000E+00  0.00000000E+00
  0.00000000E+00  0.00000000E+00  0.00000000E+00
  0.00000000E+00  0.00000000E+00  0.00000000E+00
  0.00000000E+00  0.00000000E+00  0.00000000E+00
  0.00000000E+00  0.00000000E+00  0.00000000E+00
  0.00000000E+00  0.00000000E+00  0.00000000E+00
  0.00000000E+00  0.00000000E+00  0.00000000E+00
  0.00000000E+00  0.00000000E+00  0.00000000E+00
  0.00000000E+00  0.00000000E+00  0.00000000E+00
  0.00000000E+00  0.00000000E+00  0.00000000E+00
  0.00000000E+00  0.00000000E+00  0.00000000E+00
  0.00000000E+00  0.00000000E+00  0.00000000E+00
  0.00000000E+00  0.00000000E+00  0.00000000E+00
  0.00000000E+00  0.00000000E+00  0.00000000E+00
  0.00000000E+00  0.00000000E+00  0.00000000E+00
  0.00000000E+00  0.00000000E+00  0.00000000E+00
  0.00000000E+00  0.00000000E+00  0.00000000E+00
  0.00000000E+00  0.00000000E+00  0.00000000E+00
  0.00000000E+00  0.00000000E+00  0.00000000E+00
  0.00000000E+00  0.00000000E+00  0.00000000E+00
  0.00000000E+00  0.00000000E+00  0.00000000E+00
  0.00000000E+00  0.00000000E+00  0.00000000E+00
  0.00000000E+00  0.00000000E+00  0.00000000E+00
  0.00000000E+00  0.00000000E+00  0.00000000E+00
  0.00000000E+00  0.00000000E+00  0.00000000E+00
  0.00000000E+00  0.00000000E+00  0.00000000E+00
  0.00000000E+00  0.00000000E+00  0.00000000E+00
  0.00000000E+00  0.00000000E+00  0.00000000E+00
  0.00000000E+00  0.00000000E+00  0.00000000E+00
  0.00000000E+00  0.00000000E+00  0.00000000E+00
  0.00000000E+00  0.00000000E+00  0.00000000E+00
  0.00000000E+00  0.00000000E+00  0.00000000E+00
  0.00000000E+00  0.00000000E+00  0.00000000E+00
  0.00000000E+00  0.00000000E+00  0.00000000E+00
  0.00000000E+00  0.00000000E+00  0.00000000E+00
  0.00000000E+00  0.00000000E+00  0.00000000E+00
  0.00000000E+00  0.00000000E+00  0.00000000E+00
  0.00000000E+00  0.00000000E+00  0.00000000E+00
  0.00000000E+00  0.00000000E+00  0.00000000E+00
  0.00000000E+00  0.00000000E+00  0.00000000E+00
  0.00000000E+00  0.00000000E+00  0.00000000E+00
  0.00000000E+00  0.00000000E+00  0.00000000E+00
  0.00000000E+00  0.00000000E+00  0.00000000E+00
  0.00000000E+00  0.00000000E+00  0.00000000E+00
  0.00000000E+00  0.00000000E+00  0.00000000E+00
  0.00000000E+00  0.00000000E+00  0.00000000E+00
  0.00000000E+00  0.00000000E+00  0.00000000E+00
  0.00000000E+00  0.00000000E+00  0.00000000E+00
  0.00000000E+00  0.00000000E+00  0.00000000E+00
  0.00000000E+00  0.00000000E+00  0.00000000E+00
  0.00000000E+00  0.00000000E+00  0.00000000E+00
  0.00000000E+00  0.00000000E+00  0.00000000E+00
  0.00000000E+00  0.00000000E+00  0.00000000E+00
  0.00000000E+00  0.00000000E+00  0.00000000E+00
  0.00000000E+00  0.00000000E+00  0.00000000E+00
  0.00000000E+00  0.00000000E+00  0.00000000E+00
  0.00000000E+00  0.00000000E+00  0.00000000E+00
  0.00000000E+00  0.00000000E+00  0.00000000E+00
  0.00000000E+00  0.00000000E+00  0.00000000E+00
  0.00000000E+00  0.00000000E+00  0.00000000E+00
  0.00000000E+00  0.00000000E+00  0.00000000E+00
  0.00000000E+00  0.00000000E+00  0.00000000E+00
  0.00000000E+00  0.00000000E+00  0.00000000E+00
  0.00000000E+00  0.00000000E+00  0.00000000E+00
  0.00000000E+00  0.00000000E+00  0.00000000E+00
  0.00000000E+00  0.00000000E+00  0.00000000E+00
  0.00000000E+00  0.00000000E+00  0.00000000E+00
  0.00000000E+00  0.00000000E+00  0.00000000E+00
  0.00000000E+00  0.00000000E+00  0.00000000E+00
  0.00000000E+00  0.00000000E+00  0.00000000E+00
  0.00000000E+00  0.00000000E+00  0.00000000E+00
  0.00000000E+00  0.00000000E+00  0.00000000E+00
  0.00000000E+00  0.00000000E+00  0.00000000E+00
  0.00000000E+00  0.00000000E+00  0.00000000E+00
  0.00000000E+00  0.00000000E+00  0.00000000E+00
  0.00000000E+00  0.00000000E+00  0.00000000E+00
  0.00000000E+00  0.00000000E+00  0.00000000E+00
  0.00000000E+00  0.00000000E+00  0.00000000E+00
  0.00000000E+00  0.00000000E+00  0.00000000E+00
  0.00000000E+00  0.00000000E+00  0.00000000E+00
  0.00000000E+00  0.00000000E+00  0.00000000E+00
  0.00000000E+00  0.00000000E+00  0.00000000E+00
  0.00000000E+00  0.00000000E+00  0.00000000E+00
  0.00000000E+00  0.00000000E+00  0.00000000E+00
  0.00000000E+00  0.00000000E+00  0.00000000E+00
  0.00000000E+00  0.00000000E+00  0.00000000E+00
  0.00000000E+00  0.00000000E+00  0.00000000E+00
  0.00000000E+00  0.00000000E+00  0.00000000E+00
  0.00000000E+00  0.00000000E+00  0.00000000E+00
  0.00000000E+00  0.00000000E+00  0.00000000E+00
  0.00000000E+00  0.00000000E+00  0.00000000E+00
  0.00000000E+00  0.00000000E+00  0.00000000E+00
  0.00000000E+00  0.00000000E+00  0.00000000E+00
  0.00000000E+00  0.00000000E+00  0.00000000E+00
  0.00000000E+00  0.00000000E+00  0.00000000E+00
  0.00000000E+00  0.00000000E+00  0.00000000E+00
  0.00000000E+00  0.00000000E+00  0.00000000E+00
  0.00000000E+00  0.00000000E+00  0.00000000E+00
  0.00000000E+00  0.00000000E+00  0.00000000E+00
  0.00000000E+00  0.00000000E+00  0.00000000E+00
  0.00000000E+00  0.00000000E+00  0.00000000E+00
  0.00000000E+00  0.00000000E+00  0.00000000E+00
  0.00000000E+00  0.00000000E+00  0.00000000E+00
  0.00000000E+00  0.00000000E+00  0.00000000E+00
  0.00000000E+00  0.00000000E+00  0.00000000E+00
  0.00000000E+00  0.00000000E+00  0.00000000E+00
  0.00000000E+00  0.00000000E+00  0.00000000E+00
  0.00000000E+00  0.00000000E+00  0.00000000E+00
  0.00000000E+00  0.00000000E+00  0.00000000E+00
  0.00000000E+00  0.00000000E+00  0.00000000E+00
  0.00000000E+00  0.00000000E+00  0.00000000E+00
  0.00000000E+00  0.00000000E+00  0.00000000E+00
  0.00000000E+00  0.00000000E+00  0.00000000E+00
  0.00000000E+00  0.00000000E+00  0.00000000E+00
  0.00000000E+00  0.00000000E+00  0.00000000E+00
  0.00000000E+00  0.00000000E+00  0.00000000E+00
  0.00000000E+00  0.00000000E+00  0.00000000E+00
  0.00000000E+00  0.00000000E+00  0.00000000E+00
  0.00000000E+00  0.00000000E+00  0.00000000E+00
  0.00000000E+00  0.00000000E+00  0.00000000E+00
  0.00000000E+00  0.00000000E+00  0.00000000E+00
  0.00000000E+00  0.00000000E+00  0.00000000E+00
  0.00000000E+00  0.00000000E+00  0.00000000E+00
  0.00000000E+00  0.00000000E+00  0.00000000E+00
  0.00000000E+00  0.00000000E+00  0.00000000E+00
  0.00000000E+00  0.00000000E+00  0.00000000E+00
  0.00000000E+00  0.00000000E+00  0.00000000E+00
  0.00000000E+00  0.00000000E+00  0.00000000E+00
  0.00000000E+00  0.00000000E+00  0.00000000E+00
  0.00000000E+00  0.00000000E+00  0.00000000E+00
