In48 Ga6 Cu12 Ag42 Se108                
   1.0000000000000000     
    16.6204518281835192   -0.0004851579224062   -7.5342117558952335
    -3.4396268741607394   16.2940705443105713   -7.5581915767748598
     0.0164650660030827    0.0209492066398691   22.1676182213550312
   In   Ga   Cu   Ag   Se
    48     6    12    42   108
Direct
  0.1667480142791291  0.5078907646216990  0.0038995017230832
  0.8335877026033316  0.5045428903685405  0.9987783210236714
  0.1685248001469901  0.8311308430716480  0.9992030312307776
  0.5029947181109193  0.8389436771885528  0.9993193704832919
  0.8314262454517376  0.8329226766036015  0.0011907569662881
  0.1719400742055512  0.1626793772005826  0.0016117735879888
  0.4992979484369044  0.1578040666320462  0.9983292297268420
  0.1678448275240640  0.4979989047866198  0.3325094397990753
  0.4999287757067563  0.4996718989630722  0.3330325599274744
  0.8322380028336198  0.4997641175418721  0.3342274547290032
  0.1707661865252490  0.8385169989763526  0.3330642743798649
  0.8308679620310855  0.8409762458493830  0.3339179605475877
  0.1672524133379127  0.1632825393904014  0.3332581388492173
  0.8344192656022145  0.1634519267361867  0.3367060489211084
  0.1701649201869913  0.4977852684550541  0.6664986460292042
  0.4971856999384059  0.5023250110423589  0.6663366046197581
  0.8290837386622414  0.4978888314447332  0.6647303877750375
  0.1714435818412383  0.8319755238559097  0.6670245456388599
  0.4984240111890870  0.8299124653313044  0.6660626812425434
  0.8301804449683985  0.8331074295665672  0.6661579572953400
  0.1663334964466188  0.1661042607972476  0.6638420394865605
  0.4997282563257386  0.1703137665593317  0.6699722362937450
  0.8331432261847880  0.1678012117426917  0.6638977914877842
  0.2503411162990616  0.4151517747421565  0.1654992446037511
  0.5825481133623640  0.4162782050324978  0.1643509562479792
  0.9139515495231123  0.4133183593698107  0.1640678864644300
  0.5807868182164029  0.7551355031891376  0.1656032175481030
  0.9155492153954228  0.7557234697148161  0.1685336349445663
  0.2582489084943518  0.0805758502267153  0.1690848399266258
  0.5859833994485228  0.0811461046575275  0.1690920845536965
  0.9109074612203614  0.0788768426048989  0.1631214490634179
  0.2483356081462063  0.4146182254217123  0.5015985809703949
  0.5833056472040283  0.4130074701184654  0.4995666657511464
  0.9163269965559095  0.4099428296363072  0.4994981001812846
  0.2510766982322394  0.7487022378107540  0.4988736983706943
  0.5851620451249886  0.7530209750168879  0.4985989596539184
  0.9152131383856599  0.7544286225353503  0.5002602677854071
  0.2512946836338799  0.0876024607629944  0.5011672375217273
  0.5831511648912198  0.0815736322506311  0.4960218323724987
  0.2535730204647422  0.4175735126940339  0.8345495942507881
  0.5786139413231979  0.4199654114753386  0.8345551244912883
  0.9175380173020571  0.4193621694381946  0.8345269495882022
  0.2540345472180690  0.7521977512909004  0.8320428926482677
  0.5797726336172389  0.7523980112650506  0.8317270670796262
  0.9138913951864112  0.7467746684445089  0.8326506047344608
  0.2532287597267668  0.0793020400035829  0.8331930814756632
  0.5847844252667898  0.0780923921974335  0.8356078120377504
  0.9153762675805979  0.0852777358630519  0.8349874339739785
  0.5000366772465341  0.5026921731302991  0.0014875626096824
  0.8285850750237458  0.1615551070812558  0.9987160790676484
  0.4983076596883507  0.8359860575691016  0.3333925412324916
  0.5027024711653496  0.1635831446268696  0.3352437146704759
  0.2521954853542994  0.7539096306934283  0.1692128366788381
  0.9136655650265340  0.0862877162237652  0.5008446451605550
  0.0046037087192019  0.6729213294944429  0.0048690066633910
  0.3361310325043121  0.9944963708045051  0.9973157061068818
  0.6642163670179926  0.9976253422470762  0.9989150503855058
  0.3366157251531234  0.9978659424883958  0.3299634860116427
  0.3290253453634122  0.3332803168770084  0.6633616676303760
  0.3352521972815552  0.6701605914514204  0.6683471459553019
  0.6644453680696500  0.6663051472861952  0.6652685124798197
  0.7463576112730692  0.9187220421099269  0.1634172150153432
  0.7493247524313915  0.9197354144312939  0.4975334927657684
  0.0840150692153614  0.2489562143417459  0.5041113807638027
  0.7475476725809571  0.2451832613131728  0.4980078761087086
  0.4195486280610723  0.9140965646615484  0.8346832385649066
  0.9992262969564081  0.3277286575357010  0.0009416265499809
  0.3349357913240993  0.3345970386500667  0.9994223352525253
  0.6661742903741441  0.3337397165154457  0.0010527664949294
  0.3374752018211566  0.6693459477728041  0.0041789785551103
  0.6657904070504870  0.6697662176180756  0.0035560400066643
  0.9991847134225367  0.0012422172678583  0.0001827032620696
  0.9992064455419083  0.3299664389357915  0.3352742293844386
  0.3344135210872849  0.3293124525972004  0.3311626201252693
  0.6620544959706791  0.3286563461532097  0.3366221463077252
  0.0021788277226946  0.6658080165728180  0.3316856016888465
  0.3314861183296856  0.6692700331005454  0.3293734117443776
  0.6657867939252000  0.6729083309294097  0.3338661476268925
  0.9986508300105896  0.0078985211026037  0.3360252464534099
  0.6701969478229373  0.9987030566593873  0.3380224710471893
  0.9976670875048086  0.3320262130422265  0.6598915402726746
  0.6629220705060419  0.3297463365483040  0.6648361054732774
  0.9998797444658223  0.6644805221771080  0.6646800332937062
  0.9929411893169586  0.0004327202366028  0.6630857955774445
  0.3377840343660949  0.9976756289686506  0.6692013993962433
  0.6654312924513448  0.9974438132691787  0.6632841229281823
  0.0798857757996529  0.5870078961228913  0.1630158819056433
  0.4211049198691370  0.5874134750257411  0.1670751505942576
  0.7481373559375797  0.5871884786886170  0.1666831122817101
  0.0887009882436445  0.9131859622025331  0.1661977362501190
  0.4139554144960513  0.9221481523578490  0.1742074744250885
  0.0779989065654263  0.2463995769899086  0.1633682519981292
  0.4203352403376783  0.2428644040042371  0.1658492565875704
  0.7522323524933512  0.2417938123335688  0.1633205966008973
  0.0839019289972995  0.5866173910113233  0.5017024409321493
  0.4193389875061939  0.5850847336171512  0.5051560976190999
  0.7495238329763083  0.5799764594394432  0.5019892867951725
  0.0797546657943897  0.9197264724439336  0.4970655591845627
  0.4153599818316493  0.9189042535970842  0.4942662932478257
  0.4161767556022724  0.2395181025973940  0.4958030129663911
  0.0828259912966729  0.5828773821154769  0.8360264826956652
  0.4127703060000627  0.5799191846751199  0.8306880531359511
  0.7494718119394861  0.5898650130841503  0.8321702086470495
  0.0863715951559101  0.9190158324816551  0.8358674183234882
  0.7517792382267316  0.9135973477508941  0.8353603106906391
  0.0855636408958276  0.2496578188462877  0.8331326895665825
  0.4154590267479605  0.2561029076827310  0.8338147133733784
  0.7512630872588986  0.2491239805908734  0.8385908702143254
  0.1235833450866011  0.4574174718711674  0.0829082830831354
  0.4604997123212726  0.4626152503782421  0.0793093147809572
  0.7919203830505026  0.4617654983909532  0.0828689194068346
  0.1293726226234000  0.7839951246906907  0.0837119697526560
  0.4580829588083120  0.8010575098060286  0.0840859383040495
  0.7871202024319572  0.8009970927012873  0.0893355527275190
  0.1306656120747292  0.1232279377365444  0.0868902815052195
  0.4531841406153063  0.1113012481005597  0.0785429730273322
  0.7835647367739327  0.1140353025946013  0.0707961075069790
  0.1241598306968825  0.4577935464277090  0.4166668206539441
  0.4586510021354471  0.4576263567699215  0.4171847725635445
  0.7911929495478418  0.4541966217743152  0.4169047486341810
  0.1273892167397435  0.7942629969331563  0.4157418660431205
  0.4601207667421647  0.7941252632810460  0.4109854531185491
  0.7891458889775222  0.8031892604709938  0.4209065415106252
  0.1235311447028522  0.1348270257638688  0.4235324051665899
  0.4540179407894342  0.1154362493543246  0.4051879554424360
  0.7944262997082916  0.1296837256321552  0.4269021956647876
  0.1259982532518791  0.4585034933848036  0.7506036626474497
  0.4477525620932283  0.4501216729781277  0.7424289884258073
  0.7889095104259809  0.4579527847045455  0.7502436661585250
  0.1251911833144206  0.7913662794401120  0.7490176533010953
  0.4474543919558300  0.7921609952666131  0.7492857056200322
  0.7828133163667701  0.7825833570745289  0.7447141906163992
  0.1269841467345287  0.1224588425562558  0.7488579577846650
  0.4615387888567852  0.1269752838324365  0.7553200924999004
  0.7910757720519896  0.1262706277227181  0.7484576330085986
  0.2919777617175399  0.6362515668795439  0.0913477795364201
  0.6160919072117181  0.6221002010216026  0.0810080310723222
  0.9581925874427739  0.6340871232218390  0.0791498493545930
  0.2955822547416957  0.9577082087111677  0.0761734448770710
  0.6355791234299772  0.9607983420670649  0.0836974226883243
  0.9598448984700312  0.9561238202411531  0.0843080357455577
  0.2959956606254934  0.2903864259163385  0.0843697300748545
  0.6234524518525930  0.2866730862006861  0.0827590873450461
  0.9463037203427547  0.2798979458266828  0.0770482580378129
  0.2940132398837605  0.6242334105266423  0.4145988755995731
  0.6263251098126474  0.6249128696156987  0.4163965805733341
  0.9570700254145947  0.6274069032265714  0.4167710418848429
  0.2948997442518078  0.9675048976641420  0.4113197832335658
  0.6237742328725915  0.9484980464469572  0.4163089087364611
  0.9538627264020647  0.9704919878695293  0.4218139320083907
  0.2920379224100955  0.2907970029727949  0.4169745758265151
  0.6249038602808312  0.2794428789617172  0.4194684457421118
  0.9669561434214273  0.2848120673782972  0.4228599950562426
  0.2946360870774214  0.6273702123504350  0.7436318609063477
  0.6241146508046569  0.6302567376299777  0.7442785835818242
  0.9567017446466579  0.6220290832027189  0.7481983155250234
  0.3030597702916822  0.9538076897924412  0.7560337809292079
  0.6253940924128116  0.9549317982608656  0.7483697774781888
  0.9572934736553762  0.9586241688990356  0.7514945039244481
  0.2923356596132223  0.2945958013644159  0.7430634515337644
  0.6264488511830351  0.2947656503035887  0.7554976415074606
  0.9601309360029191  0.2936962657591522  0.7496357527843642
  0.2069996480135003  0.3706198530201661  0.2474463343338584
  0.5421065322869438  0.3740166395513214  0.2491650281343496
  0.8741532163352730  0.3733252631861248  0.2501743963818441
  0.2084848215332684  0.7128468664909846  0.2440930428282684
  0.5397777843262972  0.7212282892985513  0.2545597103551884
  0.8748042230425241  0.7133192377118931  0.2528486091186082
  0.2183917640119830  0.0376255735833482  0.2545947565299187
  0.5435078807844604  0.0468354040567363  0.2577535443854728
  0.8643982551004399  0.0336353949404185  0.2439925132874592
  0.2062198757492268  0.3632988085576443  0.5826889482984825
  0.5367238865555137  0.3738145428299973  0.5822201782186838
  0.8615671596947649  0.3655060990707284  0.5760458588519342
  0.2176788718669442  0.7054354837314989  0.5871382755881456
  0.5507419871033576  0.7080927332739293  0.5868307217883029
  0.8740297867528710  0.7087947429359005  0.5826106593361473
  0.2120743642087319  0.0404616483848059  0.5836552536896846
  0.5412996418840947  0.0463211832863450  0.5834637137870757
  0.8674427234125588  0.0385783063892902  0.5726801457903434
  0.2081405469130431  0.3804265904094848  0.9190135858950299
  0.5401628962056151  0.3849195955997970  0.9241899379801950
  0.8765941000821229  0.3767541693536813  0.9186020368537271
  0.2115966106399725  0.7071939227522677  0.9143748891457406
  0.5389247059046909  0.7081108357966244  0.9147721787530614
  0.8840476523109331  0.7081294146726265  0.9250959938244989
  0.2198935566440596  0.0372520606077771  0.9222646829266594
  0.5419157986860696  0.0269712627388827  0.9161192189495750
  0.8717620169181330  0.0471625635088913  0.9207221101585503
  0.0415938122001052  0.5384375863106925  0.2463554598795952
  0.3755301884481099  0.5414703292723146  0.2480920556244044
  0.7074137898327066  0.5436925667891046  0.2510463302145567
  0.0420098953465100  0.8812672391158429  0.2533406283510615
  0.3727606535178936  0.8743111952693141  0.2558373518464805
  0.7087723718408299  0.8804194311029008  0.2424610576583532
  0.0389453998866074  0.2030383499337844  0.2485913278554150
  0.3873024200972850  0.2048376668143277  0.2569066248506005
  0.7109052289318214  0.2082509847631897  0.2524769061450414
  0.0414661875829836  0.5366275198679062  0.5821267635637000
  0.3690788306840034  0.5492133621263093  0.5887164389906943
  0.7025304454082786  0.5470602183618496  0.5879940865286244
  0.0453305776766939  0.8764591361574929  0.5847013980482032
  0.3774116559191398  0.8738948481668984  0.5795858952927091
  0.7126554191838892  0.8791565649641200  0.5768029649552133
  0.0365177399768299  0.2021464024084949  0.5745326638369832
  0.3738451990527594  0.2178384363751960  0.5899170292396789
  0.7082698321624932  0.2098625854159764  0.5770649160034296
  0.0382785098810388  0.5527761566680596  0.9242911790866231
  0.3823408396370667  0.5421588125221817  0.9231116625949767
  0.7054118427758098  0.5454554213761824  0.9151649138155094
  0.0404153887258900  0.8729380624508494  0.9163386779835747
  0.3771951957041040  0.8842174441093320  0.9155899307340789
  0.7048308939021481  0.8808771491911997  0.9218196956013642
  0.0461829222275085  0.2057372541360039  0.9179172960942168
  0.3775050851231470  0.2063056189549926  0.9166462460615321
  0.7123318526796680  0.2037809770551959  0.9227417340823649

  0.00000000E+00  0.00000000E+00  0.00000000E+00
  0.00000000E+00  0.00000000E+00  0.00000000E+00
  0.00000000E+00  0.00000000E+00  0.00000000E+00
  0.00000000E+00  0.00000000E+00  0.00000000E+00
  0.00000000E+00  0.00000000E+00  0.00000000E+00
  0.00000000E+00  0.00000000E+00  0.00000000E+00
  0.00000000E+00  0.00000000E+00  0.00000000E+00
  0.00000000E+00  0.00000000E+00  0.00000000E+00
  0.00000000E+00  0.00000000E+00  0.00000000E+00
  0.00000000E+00  0.00000000E+00  0.00000000E+00
  0.00000000E+00  0.00000000E+00  0.00000000E+00
  0.00000000E+00  0.00000000E+00  0.00000000E+00
  0.00000000E+00  0.00000000E+00  0.00000000E+00
  0.00000000E+00  0.00000000E+00  0.00000000E+00
  0.00000000E+00  0.00000000E+00  0.00000000E+00
  0.00000000E+00  0.00000000E+00  0.00000000E+00
  0.00000000E+00  0.00000000E+00  0.00000000E+00
  0.00000000E+00  0.00000000E+00  0.00000000E+00
  0.00000000E+00  0.00000000E+00  0.00000000E+00
  0.00000000E+00  0.00000000E+00  0.00000000E+00
  0.00000000E+00  0.00000000E+00  0.00000000E+00
  0.00000000E+00  0.00000000E+00  0.00000000E+00
  0.00000000E+00  0.00000000E+00  0.00000000E+00
  0.00000000E+00  0.00000000E+00  0.00000000E+00
  0.00000000E+00  0.00000000E+00  0.00000000E+00
  0.00000000E+00  0.00000000E+00  0.00000000E+00
  0.00000000E+00  0.00000000E+00  0.00000000E+00
  0.00000000E+00  0.00000000E+00  0.00000000E+00
  0.00000000E+00  0.00000000E+00  0.00000000E+00
  0.00000000E+00  0.00000000E+00  0.00000000E+00
  0.00000000E+00  0.00000000E+00  0.00000000E+00
  0.00000000E+00  0.00000000E+00  0.00000000E+00
  0.00000000E+00  0.00000000E+00  0.00000000E+00
  0.00000000E+00  0.00000000E+00  0.00000000E+00
  0.00000000E+00  0.00000000E+00  0.00000000E+00
  0.00000000E+00  0.00000000E+00  0.00000000E+00
  0.00000000E+00  0.00000000E+00  0.00000000E+00
  0.00000000E+00  0.00000000E+00  0.00000000E+00
  0.00000000E+00  0.00000000E+00  0.00000000E+00
  0.00000000E+00  0.00000000E+00  0.00000000E+00
  0.00000000E+00  0.00000000E+00  0.00000000E+00
  0.00000000E+00  0.00000000E+00  0.00000000E+00
  0.00000000E+00  0.00000000E+00  0.00000000E+00
  0.00000000E+00  0.00000000E+00  0.00000000E+00
  0.00000000E+00  0.00000000E+00  0.00000000E+00
  0.00000000E+00  0.00000000E+00  0.00000000E+00
  0.00000000E+00  0.00000000E+00  0.00000000E+00
  0.00000000E+00  0.00000000E+00  0.00000000E+00
  0.00000000E+00  0.00000000E+00  0.00000000E+00
  0.00000000E+00  0.00000000E+00  0.00000000E+00
  0.00000000E+00  0.00000000E+00  0.00000000E+00
  0.00000000E+00  0.00000000E+00  0.00000000E+00
  0.00000000E+00  0.00000000E+00  0.00000000E+00
  0.00000000E+00  0.00000000E+00  0.00000000E+00
  0.00000000E+00  0.00000000E+00  0.00000000E+00
  0.00000000E+00  0.00000000E+00  0.00000000E+00
  0.00000000E+00  0.00000000E+00  0.00000000E+00
  0.00000000E+00  0.00000000E+00  0.00000000E+00
  0.00000000E+00  0.00000000E+00  0.00000000E+00
  0.00000000E+00  0.00000000E+00  0.00000000E+00
  0.00000000E+00  0.00000000E+00  0.00000000E+00
  0.00000000E+00  0.00000000E+00  0.00000000E+00
  0.00000000E+00  0.00000000E+00  0.00000000E+00
  0.00000000E+00  0.00000000E+00  0.00000000E+00
  0.00000000E+00  0.00000000E+00  0.00000000E+00
  0.00000000E+00  0.00000000E+00  0.00000000E+00
  0.00000000E+00  0.00000000E+00  0.00000000E+00
  0.00000000E+00  0.00000000E+00  0.00000000E+00
  0.00000000E+00  0.00000000E+00  0.00000000E+00
  0.00000000E+00  0.00000000E+00  0.00000000E+00
  0.00000000E+00  0.00000000E+00  0.00000000E+00
  0.00000000E+00  0.00000000E+00  0.00000000E+00
  0.00000000E+00  0.00000000E+00  0.00000000E+00
  0.00000000E+00  0.00000000E+00  0.00000000E+00
  0.00000000E+00  0.00000000E+00  0.00000000E+00
  0.00000000E+00  0.00000000E+00  0.00000000E+00
  0.00000000E+00  0.00000000E+00  0.00000000E+00
  0.00000000E+00  0.00000000E+00  0.00000000E+00
  0.00000000E+00  0.00000000E+00  0.00000000E+00
  0.00000000E+00  0.00000000E+00  0.00000000E+00
  0.00000000E+00  0.00000000E+00  0.00000000E+00
  0.00000000E+00  0.00000000E+00  0.00000000E+00
  0.00000000E+00  0.00000000E+00  0.00000000E+00
  0.00000000E+00  0.00000000E+00  0.00000000E+00
  0.00000000E+00  0.00000000E+00  0.00000000E+00
  0.00000000E+00  0.00000000E+00  0.00000000E+00
  0.00000000E+00  0.00000000E+00  0.00000000E+00
  0.00000000E+00  0.00000000E+00  0.00000000E+00
  0.00000000E+00  0.00000000E+00  0.00000000E+00
  0.00000000E+00  0.00000000E+00  0.00000000E+00
  0.00000000E+00  0.00000000E+00  0.00000000E+00
  0.00000000E+00  0.00000000E+00  0.00000000E+00
  0.00000000E+00  0.00000000E+00  0.00000000E+00
  0.00000000E+00  0.00000000E+00  0.00000000E+00
  0.00000000E+00  0.00000000E+00  0.00000000E+00
  0.00000000E+00  0.00000000E+00  0.00000000E+00
  0.00000000E+00  0.00000000E+00  0.00000000E+00
  0.00000000E+00  0.00000000E+00  0.00000000E+00
  0.00000000E+00  0.00000000E+00  0.00000000E+00
  0.00000000E+00  0.00000000E+00  0.00000000E+00
  0.00000000E+00  0.00000000E+00  0.00000000E+00
  0.00000000E+00  0.00000000E+00  0.00000000E+00
  0.00000000E+00  0.00000000E+00  0.00000000E+00
  0.00000000E+00  0.00000000E+00  0.00000000E+00
  0.00000000E+00  0.00000000E+00  0.00000000E+00
  0.00000000E+00  0.00000000E+00  0.00000000E+00
  0.00000000E+00  0.00000000E+00  0.00000000E+00
  0.00000000E+00  0.00000000E+00  0.00000000E+00
  0.00000000E+00  0.00000000E+00  0.00000000E+00
  0.00000000E+00  0.00000000E+00  0.00000000E+00
  0.00000000E+00  0.00000000E+00  0.00000000E+00
  0.00000000E+00  0.00000000E+00  0.00000000E+00
  0.00000000E+00  0.00000000E+00  0.00000000E+00
  0.00000000E+00  0.00000000E+00  0.00000000E+00
  0.00000000E+00  0.00000000E+00  0.00000000E+00
  0.00000000E+00  0.00000000E+00  0.00000000E+00
  0.00000000E+00  0.00000000E+00  0.00000000E+00
  0.00000000E+00  0.00000000E+00  0.00000000E+00
  0.00000000E+00  0.00000000E+00  0.00000000E+00
  0.00000000E+00  0.00000000E+00  0.00000000E+00
  0.00000000E+00  0.00000000E+00  0.00000000E+00
  0.00000000E+00  0.00000000E+00  0.00000000E+00
  0.00000000E+00  0.00000000E+00  0.00000000E+00
  0.00000000E+00  0.00000000E+00  0.00000000E+00
  0.00000000E+00  0.00000000E+00  0.00000000E+00
  0.00000000E+00  0.00000000E+00  0.00000000E+00
  0.00000000E+00  0.00000000E+00  0.00000000E+00
  0.00000000E+00  0.00000000E+00  0.00000000E+00
  0.00000000E+00  0.00000000E+00  0.00000000E+00
  0.00000000E+00  0.00000000E+00  0.00000000E+00
  0.00000000E+00  0.00000000E+00  0.00000000E+00
  0.00000000E+00  0.00000000E+00  0.00000000E+00
  0.00000000E+00  0.00000000E+00  0.00000000E+00
  0.00000000E+00  0.00000000E+00  0.00000000E+00
  0.00000000E+00  0.00000000E+00  0.00000000E+00
  0.00000000E+00  0.00000000E+00  0.00000000E+00
  0.00000000E+00  0.00000000E+00  0.00000000E+00
  0.00000000E+00  0.00000000E+00  0.00000000E+00
  0.00000000E+00  0.00000000E+00  0.00000000E+00
  0.00000000E+00  0.00000000E+00  0.00000000E+00
  0.00000000E+00  0.00000000E+00  0.00000000E+00
  0.00000000E+00  0.00000000E+00  0.00000000E+00
  0.00000000E+00  0.00000000E+00  0.00000000E+00
  0.00000000E+00  0.00000000E+00  0.00000000E+00
  0.00000000E+00  0.00000000E+00  0.00000000E+00
  0.00000000E+00  0.00000000E+00  0.00000000E+00
  0.00000000E+00  0.00000000E+00  0.00000000E+00
  0.00000000E+00  0.00000000E+00  0.00000000E+00
  0.00000000E+00  0.00000000E+00  0.00000000E+00
  0.00000000E+00  0.00000000E+00  0.00000000E+00
  0.00000000E+00  0.00000000E+00  0.00000000E+00
  0.00000000E+00  0.00000000E+00  0.00000000E+00
  0.00000000E+00  0.00000000E+00  0.00000000E+00
  0.00000000E+00  0.00000000E+00  0.00000000E+00
  0.00000000E+00  0.00000000E+00  0.00000000E+00
  0.00000000E+00  0.00000000E+00  0.00000000E+00
  0.00000000E+00  0.00000000E+00  0.00000000E+00
  0.00000000E+00  0.00000000E+00  0.00000000E+00
  0.00000000E+00  0.00000000E+00  0.00000000E+00
  0.00000000E+00  0.00000000E+00  0.00000000E+00
  0.00000000E+00  0.00000000E+00  0.00000000E+00
  0.00000000E+00  0.00000000E+00  0.00000000E+00
  0.00000000E+00  0.00000000E+00  0.00000000E+00
  0.00000000E+00  0.00000000E+00  0.00000000E+00
  0.00000000E+00  0.00000000E+00  0.00000000E+00
  0.00000000E+00  0.00000000E+00  0.00000000E+00
  0.00000000E+00  0.00000000E+00  0.00000000E+00
  0.00000000E+00  0.00000000E+00  0.00000000E+00
  0.00000000E+00  0.00000000E+00  0.00000000E+00
  0.00000000E+00  0.00000000E+00  0.00000000E+00
  0.00000000E+00  0.00000000E+00  0.00000000E+00
  0.00000000E+00  0.00000000E+00  0.00000000E+00
  0.00000000E+00  0.00000000E+00  0.00000000E+00
  0.00000000E+00  0.00000000E+00  0.00000000E+00
  0.00000000E+00  0.00000000E+00  0.00000000E+00
  0.00000000E+00  0.00000000E+00  0.00000000E+00
  0.00000000E+00  0.00000000E+00  0.00000000E+00
  0.00000000E+00  0.00000000E+00  0.00000000E+00
  0.00000000E+00  0.00000000E+00  0.00000000E+00
  0.00000000E+00  0.00000000E+00  0.00000000E+00
  0.00000000E+00  0.00000000E+00  0.00000000E+00
  0.00000000E+00  0.00000000E+00  0.00000000E+00
  0.00000000E+00  0.00000000E+00  0.00000000E+00
  0.00000000E+00  0.00000000E+00  0.00000000E+00
  0.00000000E+00  0.00000000E+00  0.00000000E+00
  0.00000000E+00  0.00000000E+00  0.00000000E+00
  0.00000000E+00  0.00000000E+00  0.00000000E+00
  0.00000000E+00  0.00000000E+00  0.00000000E+00
  0.00000000E+00  0.00000000E+00  0.00000000E+00
  0.00000000E+00  0.00000000E+00  0.00000000E+00
  0.00000000E+00  0.00000000E+00  0.00000000E+00
  0.00000000E+00  0.00000000E+00  0.00000000E+00
  0.00000000E+00  0.00000000E+00  0.00000000E+00
  0.00000000E+00  0.00000000E+00  0.00000000E+00
  0.00000000E+00  0.00000000E+00  0.00000000E+00
  0.00000000E+00  0.00000000E+00  0.00000000E+00
  0.00000000E+00  0.00000000E+00  0.00000000E+00
  0.00000000E+00  0.00000000E+00  0.00000000E+00
  0.00000000E+00  0.00000000E+00  0.00000000E+00
  0.00000000E+00  0.00000000E+00  0.00000000E+00
  0.00000000E+00  0.00000000E+00  0.00000000E+00
  0.00000000E+00  0.00000000E+00  0.00000000E+00
  0.00000000E+00  0.00000000E+00  0.00000000E+00
  0.00000000E+00  0.00000000E+00  0.00000000E+00
  0.00000000E+00  0.00000000E+00  0.00000000E+00
  0.00000000E+00  0.00000000E+00  0.00000000E+00
  0.00000000E+00  0.00000000E+00  0.00000000E+00
  0.00000000E+00  0.00000000E+00  0.00000000E+00
  0.00000000E+00  0.00000000E+00  0.00000000E+00
  0.00000000E+00  0.00000000E+00  0.00000000E+00
  0.00000000E+00  0.00000000E+00  0.00000000E+00
  0.00000000E+00  0.00000000E+00  0.00000000E+00
  0.00000000E+00  0.00000000E+00  0.00000000E+00
  0.00000000E+00  0.00000000E+00  0.00000000E+00
  0.00000000E+00  0.00000000E+00  0.00000000E+00
  0.00000000E+00  0.00000000E+00  0.00000000E+00
