In54 Cu12 Ag42 Se108                    
   1.0000000000000000     
    16.7266735005767977   -0.0237318912829756   -7.4754619925610069
    -3.3269052775309556   16.3892277492768983   -7.5065557877036584
    -0.0685534603658828   -0.0549339471921058   22.2732320505544621
   In   Cu   Ag   Se
    54    12    42   108
Direct
  0.1636988916480107  0.5012514545563533  0.0014610067361005
  0.5006048173608946  0.4956516399782913  0.9996352716696109
  0.8361561687584214  0.5037352178634649  0.0006916451991614
  0.1622569034145300  0.8328706188520627  0.9980617668798928
  0.5014121970128258  0.8358472799531427  0.9983962667886388
  0.8336252179354133  0.8301191162606685  0.9984016819239088
  0.1682996485506720  0.1658662716832495  0.0002314261691936
  0.4973283099589594  0.1653800598218780  0.9966231902708458
  0.8331344868361725  0.1639154360349551  0.9988702306196089
  0.1697648278868513  0.4984201397889692  0.3355941112992866
  0.5010082036102261  0.4939721417541207  0.3349310288522958
  0.8322233780012311  0.4992628885298984  0.3354707807780599
  0.1626105543522343  0.8394660304433899  0.3367442576902846
  0.5006090064876503  0.8350505833517730  0.3351157707283647
  0.8389117956604153  0.8367661467122431  0.3340558378514160
  0.1648849391939891  0.1660642565774566  0.3341212584023552
  0.5035401408117295  0.1720828985916967  0.3348443398028209
  0.8345798605865937  0.1674365089334415  0.3384504511130686
  0.1647443181325130  0.4947504746271463  0.6641622266019880
  0.5051522286613803  0.4984578036320144  0.6662334004215538
  0.8269766626761168  0.4972571701235537  0.6648727502310194
  0.1664752253040263  0.8383042401569014  0.6656091277561202
  0.4993381891764557  0.8316000932684418  0.6663868464418456
  0.8332104596296759  0.8314190060990683  0.6646420435189597
  0.1660234858850416  0.1645673369920360  0.6660157303133687
  0.4986930137996737  0.1696294554756079  0.6650808216345112
  0.8354822396715136  0.1707910432784772  0.6659759591293053
  0.2520691707719820  0.4147117358919701  0.1687270727731018
  0.5851998790156756  0.4122251067653622  0.1688742949285569
  0.9166713404053510  0.4161989633778589  0.1677187989420688
  0.2460350632458983  0.7506897302307962  0.1671542374850574
  0.5846869337954601  0.7512020823784695  0.1665604555317017
  0.9184116295267941  0.7549287694966296  0.1674189349638837
  0.2507120759332437  0.0859738275992896  0.1689112205186944
  0.5843814788391839  0.0868246121152652  0.1675160972709691
  0.9159543851488010  0.0809216900189185  0.1686802423409048
  0.2501979610108265  0.4131166672435285  0.5000652690014462
  0.5859466324578406  0.4145036988757340  0.5006226907914524
  0.9148093914270561  0.4108441173798596  0.4999464814999257
  0.2472806937549734  0.7532126909799715  0.5002849498548869
  0.5834660758832086  0.7478241004668575  0.5010728632744588
  0.9194233093449569  0.7548026429394739  0.5004508067129834
  0.2442391936385491  0.0836469495738541  0.5002762643846026
  0.5856749775039489  0.0888712010588293  0.5012101413239733
  0.9216745260289230  0.0865663556763963  0.5020195690667109
  0.2514530743921597  0.4138743670400586  0.8342468105118570
  0.5829203434590369  0.4131136392607004  0.8302748919412366
  0.9147526518490778  0.4187174613224585  0.8333777524241697
  0.2500113337608525  0.7504547944132511  0.8298213055874513
  0.5821622873344907  0.7506666814355683  0.8307949262194114
  0.9136925687643682  0.7453319309306892  0.8307815804982255
  0.2515147114905503  0.0831345416642222  0.8311217675004059
  0.5782858886335731  0.0825902068848663  0.8311247646209452
  0.9176068509819757  0.0830547729613400  0.8294281698897947
  0.9990480367521783  0.6674615306891880  0.9993927638380029
  0.3340142242141013  0.3318668750460674  0.3353995653317057
  0.6696872842613075  0.3308243183401700  0.3374715245471194
  0.0023239597962856  0.0056417196279028  0.3400876517345850
  0.6693957147436294  0.3297739282001970  0.6632190073102464
  0.6663261575275072  0.6668137091274318  0.6656678492386163
  0.0002839521975275  0.9971999814818986  0.6627801303852721
  0.0792407599328442  0.9211787704953451  0.5006187280682468
  0.0840172663051248  0.2459195484615151  0.4985628880939998
  0.7471126721023964  0.2508247043931675  0.5002799357336514
  0.4154459324558815  0.9163482993141798  0.8314744765425104
  0.4171852770678441  0.2491743928018053  0.8322001218624848
  0.0000054399392226  0.3326103793267094  0.0006096350824123
  0.3332015533866794  0.3304389591116248  0.9971496782000742
  0.6654012281455337  0.3360409254891650  0.9982213999613805
  0.3323240132751337  0.6672290720993956  0.0009916449650476
  0.6655250366833911  0.6649094350891929  0.9982018988066201
  0.9982251586810520  0.9984039345114439  0.9983571845389534
  0.3354301599946510  0.9947415706510512  0.9979411440449155
  0.6622108638319233  0.9984521301639191  0.9938121050623607
  0.9986801625964787  0.3310665342462613  0.3364178776419067
  0.0050100130451298  0.6689228224530268  0.3357974260156240
  0.3314691929429756  0.6652890546281895  0.3316632104554529
  0.6675279548348882  0.6684658063572400  0.3361690476120600
  0.3354274143757010  0.0041628019388824  0.3344266558483469
  0.6688439096856627  0.0052022232217581  0.3351494754498674
  0.9967194364058329  0.3328703168818379  0.6619871046435222
  0.3296569490734527  0.3348909460912992  0.6700466474979194
  0.9988358665191157  0.6665407890355013  0.6681194712985814
  0.3354627046385943  0.6685599851310542  0.6659409680695418
  0.3340871554142950  0.0037733010685841  0.6682116401241842
  0.6685624199565368  0.0008918110515168  0.6651511740303064
  0.0792974698389060  0.5856771207530329  0.1653915531134800
  0.4182038605552378  0.5834018038434436  0.1675146704762440
  0.7510110481148118  0.5845646210129303  0.1692274929948141
  0.0813131936161469  0.9113730728037837  0.1660423723132141
  0.4154336009751489  0.9159126953214809  0.1659424881854932
  0.7540549416695157  0.9211991099669916  0.1694457281797739
  0.0882535844813361  0.2533482262308908  0.1703599086627960
  0.4203377212066854  0.2521036416691231  0.1723474317055604
  0.7494884756397155  0.2473606967794453  0.1690487372076959
  0.0817975019081771  0.5820453166682569  0.5012927501094069
  0.4193315589011135  0.5810108288310118  0.4995397606884140
  0.7522986786060457  0.5778595424115522  0.5003168595390193
  0.4162452083108548  0.9187175267798580  0.4993130961467145
  0.7560836384887324  0.9235560038944044  0.5032861621264999
  0.4162112966585880  0.2549886824138028  0.5019557896264715
  0.0853888772211988  0.5821473255663321  0.8373139218021279
  0.4145564333516916  0.5825288472965369  0.8330445390006673
  0.7486145543343028  0.5839791139554436  0.8299509683238000
  0.0808363805648042  0.9205076921967148  0.8299000798632150
  0.7483730614519502  0.9127024239835890  0.8268459313510164
  0.0849934434685125  0.2443878621536015  0.8299274068014526
  0.7449489539644318  0.2516508395055439  0.8318998781679738
  0.1259194259018201  0.4583834296681104  0.0869261376889412
  0.4602114576907255  0.4556539098232406  0.0853338231786225
  0.7933692744118730  0.4602388416130623  0.0834739625758161
  0.1159011547272826  0.7834765572377194  0.0770371977210615
  0.4593265018301480  0.7926212079611119  0.0816809862008583
  0.7899406528858819  0.7921188280447211  0.0827234452737144
  0.1244038458282972  0.1245550577399541  0.0829419575580843
  0.4570471276504122  0.1257821749720733  0.0826373979474724
  0.7907207998737960  0.1223163654900432  0.0831423388468693
  0.1252898418784198  0.4571345989603373  0.4180790061824311
  0.4524215950742700  0.4466130593037434  0.4134046006653165
  0.7860086924279415  0.4473322798748640  0.4127043091794462
  0.1212092728181915  0.8038265616656659  0.4247566260606419
  0.4584617120734507  0.7908392179411763  0.4175397316262490
  0.7935466338981527  0.7950227193899480  0.4162145922017828
  0.1157209884579231  0.1262371127631070  0.4171714389530621
  0.4602820434472079  0.1298622504644698  0.4176372800180275
  0.7916625024601416  0.1341271200100991  0.4267242800570443
  0.1257881637753044  0.4562055426862557  0.7509036974960281
  0.4588577782216916  0.4585187871919274  0.7487710625907624
  0.7821968024670340  0.4494147640857946  0.7446616912291191
  0.1237136572241155  0.7929494154227896  0.7474663501518535
  0.4556353710909633  0.8000476627361266  0.7546233418337138
  0.7849408947988792  0.7815146016999250  0.7423616084042592
  0.1178544945530717  0.1136791545064497  0.7427444157700336
  0.4559419244993563  0.1348758575376223  0.7529917221965761
  0.7922972216813946  0.1282944234144381  0.7488585228492042
  0.2904442567694190  0.6255599671248504  0.0852153618022982
  0.6246067706066967  0.6232322617902710  0.0827281402268412
  0.9608027937914514  0.6320276349362643  0.0790857820053787
  0.2888756681095259  0.9582038425773760  0.0826280105935311
  0.6272899053660339  0.9615634472893433  0.0843866088111724
  0.9574621300029165  0.9569870268602543  0.0829792141547969
  0.2943347360651813  0.2907207361235820  0.0840774782578819
  0.6255018490430615  0.2886783042081049  0.0815437070223837
  0.9585003434522861  0.2901088004951404  0.0844606063408051
  0.2919997801555283  0.6272503418379358  0.4191521411442807
  0.6248256023476628  0.6216216835978656  0.4176645979496101
  0.9576225002622962  0.6252454073581788  0.4170611468902621
  0.2899680841641370  0.9621182700993245  0.4172099481516369
  0.6262797887730045  0.9612114583077656  0.4184684511014964
  0.9683801870374253  0.9620267774451889  0.4182955084951629
  0.2922633085196296  0.2920997949553907  0.4112693255288349
  0.6367836695083255  0.2925532333681957  0.4185910884460071
  0.9665342696063277  0.2871581029182053  0.4240819533128217
  0.2892484638245563  0.6216930989840606  0.7460902359634858
  0.6269059535676149  0.6293393714627271  0.7439357462685052
  0.9563797831662626  0.6189424742105700  0.7488981603177081
  0.2999221310720301  0.9562113814168001  0.7542317319381624
  0.6223608324698162  0.9593040440826428  0.7474665433756158
  0.9580526974226728  0.9595536137515097  0.7401377976926469
  0.2976557882710011  0.2859959061799842  0.7557298787131543
  0.6264572030236053  0.2935622707513872  0.7410093954156167
  0.9613959993645551  0.2953711932561376  0.7518393396908323
  0.2193771717788380  0.3731161065065223  0.2580265167811007
  0.5537240230239959  0.3702804454094064  0.2587717342432256
  0.8749006787407296  0.3745766383138474  0.2516651687885130
  0.2047131603233083  0.7127483636860319  0.2533065954428579
  0.5426427520368691  0.7103326091187441  0.2507972927125479
  0.8778132603526103  0.7090660901295962  0.2497234196032849
  0.2057661895076706  0.0403669526477799  0.2492141336274756
  0.5402725244750641  0.0435412935584907  0.2493622729417666
  0.8839901788795146  0.0419868486654167  0.2600919032328264
  0.1996985813000975  0.3638898588479265  0.5767003475342776
  0.5520266138494279  0.3708397606611769  0.5881856394198337
  0.8633642226086948  0.3673152588696453  0.5783513849891051
  0.2062084442611365  0.7096740554092875  0.5831599947507726
  0.5485647423177724  0.7051642777165057  0.5887832586751500
  0.8757166014820612  0.7074484466356736  0.5805575315451321
  0.2000094334114593  0.0335763635455137  0.5790864828822677
  0.5421583230344638  0.0446488234839393  0.5829628410166521
  0.8868097084634528  0.0445342041544592  0.5900050130521706
  0.2057709045361165  0.3753384115565837  0.9174530652073187
  0.5333686559026276  0.3659322553214679  0.9087025233470172
  0.8745816863649125  0.3752190448985928  0.9171017862133795
  0.2090732919486840  0.7106220189792225  0.9155608035780460
  0.5412678506915114  0.7081990927052786  0.9145990869136540
  0.8816852552988408  0.7037840703368090  0.9202270781266790
  0.2110616325649701  0.0420918509554440  0.9161731589850746
  0.5308126492182410  0.0335973417495552  0.9090459967848474
  0.8739050819359235  0.0395351119952636  0.9118970785589156
  0.0440202442645159  0.5403055324557116  0.2511819350361080
  0.3781370294057425  0.5392642899447821  0.2517157567183119
  0.7076644967527699  0.5407309535461309  0.2512130555913288
  0.0376762695767781  0.8879477511421143  0.2581780793676174
  0.3734712412485166  0.8749040651728066  0.2502939600247771
  0.7103883531767110  0.8774417034860136  0.2517774256524348
  0.0402078764374494  0.2074616605234567  0.2495898818714934
  0.3730998765526650  0.2165305806895930  0.2571213397758072
  0.7087446356815619  0.2151778563668074  0.2585222852417459
  0.0381615510552962  0.5380808279915854  0.5833963637611035
  0.3761826366912757  0.5385966476351598  0.5837824785587102
  0.7036765139863377  0.5488017031305219  0.5876985370123720
  0.0421299674878455  0.8864290916921931  0.5822589022125300
  0.3755420970455106  0.8759034126238063  0.5836410695664256
  0.7084163113828552  0.8737564179272468  0.5812155327609787
  0.0478111395888661  0.2127370176307934  0.5802506509651764
  0.3700328136658158  0.2091394756037630  0.5821123368886276
  0.7104223521372433  0.2179519070720204  0.5826131951899995
  0.0372025665598414  0.5493362777461925  0.9228195216510713
  0.3754483177212435  0.5403896978349891  0.9181958516273738
  0.7072480943907848  0.5398870714930482  0.9143730103022918
  0.0376193599467882  0.8728189227671663  0.9112708561936387
  0.3779626959739844  0.8756151524189093  0.9087937282584946
  0.7098728517381048  0.8734650580075751  0.9143826495298484
  0.0430825606034730  0.2080684388197724  0.9167065785318798
  0.3768749832026188  0.2102511667318012  0.9091142450331233
  0.7063532644928756  0.2061515542072883  0.9159330925510858

  0.00000000E+00  0.00000000E+00  0.00000000E+00
  0.00000000E+00  0.00000000E+00  0.00000000E+00
  0.00000000E+00  0.00000000E+00  0.00000000E+00
  0.00000000E+00  0.00000000E+00  0.00000000E+00
  0.00000000E+00  0.00000000E+00  0.00000000E+00
  0.00000000E+00  0.00000000E+00  0.00000000E+00
  0.00000000E+00  0.00000000E+00  0.00000000E+00
  0.00000000E+00  0.00000000E+00  0.00000000E+00
  0.00000000E+00  0.00000000E+00  0.00000000E+00
  0.00000000E+00  0.00000000E+00  0.00000000E+00
  0.00000000E+00  0.00000000E+00  0.00000000E+00
  0.00000000E+00  0.00000000E+00  0.00000000E+00
  0.00000000E+00  0.00000000E+00  0.00000000E+00
  0.00000000E+00  0.00000000E+00  0.00000000E+00
  0.00000000E+00  0.00000000E+00  0.00000000E+00
  0.00000000E+00  0.00000000E+00  0.00000000E+00
  0.00000000E+00  0.00000000E+00  0.00000000E+00
  0.00000000E+00  0.00000000E+00  0.00000000E+00
  0.00000000E+00  0.00000000E+00  0.00000000E+00
  0.00000000E+00  0.00000000E+00  0.00000000E+00
  0.00000000E+00  0.00000000E+00  0.00000000E+00
  0.00000000E+00  0.00000000E+00  0.00000000E+00
  0.00000000E+00  0.00000000E+00  0.00000000E+00
  0.00000000E+00  0.00000000E+00  0.00000000E+00
  0.00000000E+00  0.00000000E+00  0.00000000E+00
  0.00000000E+00  0.00000000E+00  0.00000000E+00
  0.00000000E+00  0.00000000E+00  0.00000000E+00
  0.00000000E+00  0.00000000E+00  0.00000000E+00
  0.00000000E+00  0.00000000E+00  0.00000000E+00
  0.00000000E+00  0.00000000E+00  0.00000000E+00
  0.00000000E+00  0.00000000E+00  0.00000000E+00
  0.00000000E+00  0.00000000E+00  0.00000000E+00
  0.00000000E+00  0.00000000E+00  0.00000000E+00
  0.00000000E+00  0.00000000E+00  0.00000000E+00
  0.00000000E+00  0.00000000E+00  0.00000000E+00
  0.00000000E+00  0.00000000E+00  0.00000000E+00
  0.00000000E+00  0.00000000E+00  0.00000000E+00
  0.00000000E+00  0.00000000E+00  0.00000000E+00
  0.00000000E+00  0.00000000E+00  0.00000000E+00
  0.00000000E+00  0.00000000E+00  0.00000000E+00
  0.00000000E+00  0.00000000E+00  0.00000000E+00
  0.00000000E+00  0.00000000E+00  0.00000000E+00
  0.00000000E+00  0.00000000E+00  0.00000000E+00
  0.00000000E+00  0.00000000E+00  0.00000000E+00
  0.00000000E+00  0.00000000E+00  0.00000000E+00
  0.00000000E+00  0.00000000E+00  0.00000000E+00
  0.00000000E+00  0.00000000E+00  0.00000000E+00
  0.00000000E+00  0.00000000E+00  0.00000000E+00
  0.00000000E+00  0.00000000E+00  0.00000000E+00
  0.00000000E+00  0.00000000E+00  0.00000000E+00
  0.00000000E+00  0.00000000E+00  0.00000000E+00
  0.00000000E+00  0.00000000E+00  0.00000000E+00
  0.00000000E+00  0.00000000E+00  0.00000000E+00
  0.00000000E+00  0.00000000E+00  0.00000000E+00
  0.00000000E+00  0.00000000E+00  0.00000000E+00
  0.00000000E+00  0.00000000E+00  0.00000000E+00
  0.00000000E+00  0.00000000E+00  0.00000000E+00
  0.00000000E+00  0.00000000E+00  0.00000000E+00
  0.00000000E+00  0.00000000E+00  0.00000000E+00
  0.00000000E+00  0.00000000E+00  0.00000000E+00
  0.00000000E+00  0.00000000E+00  0.00000000E+00
  0.00000000E+00  0.00000000E+00  0.00000000E+00
  0.00000000E+00  0.00000000E+00  0.00000000E+00
  0.00000000E+00  0.00000000E+00  0.00000000E+00
  0.00000000E+00  0.00000000E+00  0.00000000E+00
  0.00000000E+00  0.00000000E+00  0.00000000E+00
  0.00000000E+00  0.00000000E+00  0.00000000E+00
  0.00000000E+00  0.00000000E+00  0.00000000E+00
  0.00000000E+00  0.00000000E+00  0.00000000E+00
  0.00000000E+00  0.00000000E+00  0.00000000E+00
  0.00000000E+00  0.00000000E+00  0.00000000E+00
  0.00000000E+00  0.00000000E+00  0.00000000E+00
  0.00000000E+00  0.00000000E+00  0.00000000E+00
  0.00000000E+00  0.00000000E+00  0.00000000E+00
  0.00000000E+00  0.00000000E+00  0.00000000E+00
  0.00000000E+00  0.00000000E+00  0.00000000E+00
  0.00000000E+00  0.00000000E+00  0.00000000E+00
  0.00000000E+00  0.00000000E+00  0.00000000E+00
  0.00000000E+00  0.00000000E+00  0.00000000E+00
  0.00000000E+00  0.00000000E+00  0.00000000E+00
  0.00000000E+00  0.00000000E+00  0.00000000E+00
  0.00000000E+00  0.00000000E+00  0.00000000E+00
  0.00000000E+00  0.00000000E+00  0.00000000E+00
  0.00000000E+00  0.00000000E+00  0.00000000E+00
  0.00000000E+00  0.00000000E+00  0.00000000E+00
  0.00000000E+00  0.00000000E+00  0.00000000E+00
  0.00000000E+00  0.00000000E+00  0.00000000E+00
  0.00000000E+00  0.00000000E+00  0.00000000E+00
  0.00000000E+00  0.00000000E+00  0.00000000E+00
  0.00000000E+00  0.00000000E+00  0.00000000E+00
  0.00000000E+00  0.00000000E+00  0.00000000E+00
  0.00000000E+00  0.00000000E+00  0.00000000E+00
  0.00000000E+00  0.00000000E+00  0.00000000E+00
  0.00000000E+00  0.00000000E+00  0.00000000E+00
  0.00000000E+00  0.00000000E+00  0.00000000E+00
  0.00000000E+00  0.00000000E+00  0.00000000E+00
  0.00000000E+00  0.00000000E+00  0.00000000E+00
  0.00000000E+00  0.00000000E+00  0.00000000E+00
  0.00000000E+00  0.00000000E+00  0.00000000E+00
  0.00000000E+00  0.00000000E+00  0.00000000E+00
  0.00000000E+00  0.00000000E+00  0.00000000E+00
  0.00000000E+00  0.00000000E+00  0.00000000E+00
  0.00000000E+00  0.00000000E+00  0.00000000E+00
  0.00000000E+00  0.00000000E+00  0.00000000E+00
  0.00000000E+00  0.00000000E+00  0.00000000E+00
  0.00000000E+00  0.00000000E+00  0.00000000E+00
  0.00000000E+00  0.00000000E+00  0.00000000E+00
  0.00000000E+00  0.00000000E+00  0.00000000E+00
  0.00000000E+00  0.00000000E+00  0.00000000E+00
  0.00000000E+00  0.00000000E+00  0.00000000E+00
  0.00000000E+00  0.00000000E+00  0.00000000E+00
  0.00000000E+00  0.00000000E+00  0.00000000E+00
  0.00000000E+00  0.00000000E+00  0.00000000E+00
  0.00000000E+00  0.00000000E+00  0.00000000E+00
  0.00000000E+00  0.00000000E+00  0.00000000E+00
  0.00000000E+00  0.00000000E+00  0.00000000E+00
  0.00000000E+00  0.00000000E+00  0.00000000E+00
  0.00000000E+00  0.00000000E+00  0.00000000E+00
  0.00000000E+00  0.00000000E+00  0.00000000E+00
  0.00000000E+00  0.00000000E+00  0.00000000E+00
  0.00000000E+00  0.00000000E+00  0.00000000E+00
  0.00000000E+00  0.00000000E+00  0.00000000E+00
  0.00000000E+00  0.00000000E+00  0.00000000E+00
  0.00000000E+00  0.00000000E+00  0.00000000E+00
  0.00000000E+00  0.00000000E+00  0.00000000E+00
  0.00000000E+00  0.00000000E+00  0.00000000E+00
  0.00000000E+00  0.00000000E+00  0.00000000E+00
  0.00000000E+00  0.00000000E+00  0.00000000E+00
  0.00000000E+00  0.00000000E+00  0.00000000E+00
  0.00000000E+00  0.00000000E+00  0.00000000E+00
  0.00000000E+00  0.00000000E+00  0.00000000E+00
  0.00000000E+00  0.00000000E+00  0.00000000E+00
  0.00000000E+00  0.00000000E+00  0.00000000E+00
  0.00000000E+00  0.00000000E+00  0.00000000E+00
  0.00000000E+00  0.00000000E+00  0.00000000E+00
  0.00000000E+00  0.00000000E+00  0.00000000E+00
  0.00000000E+00  0.00000000E+00  0.00000000E+00
  0.00000000E+00  0.00000000E+00  0.00000000E+00
  0.00000000E+00  0.00000000E+00  0.00000000E+00
  0.00000000E+00  0.00000000E+00  0.00000000E+00
  0.00000000E+00  0.00000000E+00  0.00000000E+00
  0.00000000E+00  0.00000000E+00  0.00000000E+00
  0.00000000E+00  0.00000000E+00  0.00000000E+00
  0.00000000E+00  0.00000000E+00  0.00000000E+00
  0.00000000E+00  0.00000000E+00  0.00000000E+00
  0.00000000E+00  0.00000000E+00  0.00000000E+00
  0.00000000E+00  0.00000000E+00  0.00000000E+00
  0.00000000E+00  0.00000000E+00  0.00000000E+00
  0.00000000E+00  0.00000000E+00  0.00000000E+00
  0.00000000E+00  0.00000000E+00  0.00000000E+00
  0.00000000E+00  0.00000000E+00  0.00000000E+00
  0.00000000E+00  0.00000000E+00  0.00000000E+00
  0.00000000E+00  0.00000000E+00  0.00000000E+00
  0.00000000E+00  0.00000000E+00  0.00000000E+00
  0.00000000E+00  0.00000000E+00  0.00000000E+00
  0.00000000E+00  0.00000000E+00  0.00000000E+00
  0.00000000E+00  0.00000000E+00  0.00000000E+00
  0.00000000E+00  0.00000000E+00  0.00000000E+00
  0.00000000E+00  0.00000000E+00  0.00000000E+00
  0.00000000E+00  0.00000000E+00  0.00000000E+00
  0.00000000E+00  0.00000000E+00  0.00000000E+00
  0.00000000E+00  0.00000000E+00  0.00000000E+00
  0.00000000E+00  0.00000000E+00  0.00000000E+00
  0.00000000E+00  0.00000000E+00  0.00000000E+00
  0.00000000E+00  0.00000000E+00  0.00000000E+00
  0.00000000E+00  0.00000000E+00  0.00000000E+00
  0.00000000E+00  0.00000000E+00  0.00000000E+00
  0.00000000E+00  0.00000000E+00  0.00000000E+00
  0.00000000E+00  0.00000000E+00  0.00000000E+00
  0.00000000E+00  0.00000000E+00  0.00000000E+00
  0.00000000E+00  0.00000000E+00  0.00000000E+00
  0.00000000E+00  0.00000000E+00  0.00000000E+00
  0.00000000E+00  0.00000000E+00  0.00000000E+00
  0.00000000E+00  0.00000000E+00  0.00000000E+00
  0.00000000E+00  0.00000000E+00  0.00000000E+00
  0.00000000E+00  0.00000000E+00  0.00000000E+00
  0.00000000E+00  0.00000000E+00  0.00000000E+00
  0.00000000E+00  0.00000000E+00  0.00000000E+00
  0.00000000E+00  0.00000000E+00  0.00000000E+00
  0.00000000E+00  0.00000000E+00  0.00000000E+00
  0.00000000E+00  0.00000000E+00  0.00000000E+00
  0.00000000E+00  0.00000000E+00  0.00000000E+00
  0.00000000E+00  0.00000000E+00  0.00000000E+00
  0.00000000E+00  0.00000000E+00  0.00000000E+00
  0.00000000E+00  0.00000000E+00  0.00000000E+00
  0.00000000E+00  0.00000000E+00  0.00000000E+00
  0.00000000E+00  0.00000000E+00  0.00000000E+00
  0.00000000E+00  0.00000000E+00  0.00000000E+00
  0.00000000E+00  0.00000000E+00  0.00000000E+00
  0.00000000E+00  0.00000000E+00  0.00000000E+00
  0.00000000E+00  0.00000000E+00  0.00000000E+00
  0.00000000E+00  0.00000000E+00  0.00000000E+00
  0.00000000E+00  0.00000000E+00  0.00000000E+00
  0.00000000E+00  0.00000000E+00  0.00000000E+00
  0.00000000E+00  0.00000000E+00  0.00000000E+00
  0.00000000E+00  0.00000000E+00  0.00000000E+00
  0.00000000E+00  0.00000000E+00  0.00000000E+00
  0.00000000E+00  0.00000000E+00  0.00000000E+00
  0.00000000E+00  0.00000000E+00  0.00000000E+00
  0.00000000E+00  0.00000000E+00  0.00000000E+00
  0.00000000E+00  0.00000000E+00  0.00000000E+00
  0.00000000E+00  0.00000000E+00  0.00000000E+00
  0.00000000E+00  0.00000000E+00  0.00000000E+00
  0.00000000E+00  0.00000000E+00  0.00000000E+00
  0.00000000E+00  0.00000000E+00  0.00000000E+00
  0.00000000E+00  0.00000000E+00  0.00000000E+00
  0.00000000E+00  0.00000000E+00  0.00000000E+00
  0.00000000E+00  0.00000000E+00  0.00000000E+00
  0.00000000E+00  0.00000000E+00  0.00000000E+00
  0.00000000E+00  0.00000000E+00  0.00000000E+00
  0.00000000E+00  0.00000000E+00  0.00000000E+00
  0.00000000E+00  0.00000000E+00  0.00000000E+00
  0.00000000E+00  0.00000000E+00  0.00000000E+00
  0.00000000E+00  0.00000000E+00  0.00000000E+00
  0.00000000E+00  0.00000000E+00  0.00000000E+00
  0.00000000E+00  0.00000000E+00  0.00000000E+00
