In36 Ga18 Cu48 Ag6 Se108                
   1.0000000000000000     
    16.0181744616930999   -0.0109571471421968   -7.0915077180496553
    -3.1448513196603471   15.7162013756299750   -7.1173123991182869
    -0.0625089401137915   -0.0662304118281734   21.4807041881323890
   In   Ga   Cu   Ag   Se
    36    18    48     6   108
Direct
  0.1649028821819201  0.4983994456856635  0.0019784426025424
  0.4976348244387054  0.4976607200847951  0.9990012964666164
  0.8396584882489293  0.5000753455096714  0.0026932060976392
  0.1654378670193069  0.8370515309585755  0.0012368411102628
  0.5002011049677364  0.8399952816976892  0.0014068457176748
  0.8340158841677834  0.8350131956334366  0.9994616836251566
  0.4999789927369065  0.1617891711139876  0.9995033910699078
  0.8381619676589906  0.4938683764730882  0.3322547955279518
  0.1673937535519556  0.8334253448887736  0.3330342696949486
  0.4987302422604856  0.8378374669856044  0.3352413425231831
  0.1694891609847389  0.1670685025478917  0.3329528725992148
  0.5002364139385165  0.1628449800309326  0.3320099856580541
  0.1606360306807844  0.5014795886000059  0.6642105472359177
  0.1662374449610979  0.8351643654172349  0.6685254378099472
  0.1664395432714372  0.1638048406360966  0.6688461281429241
  0.5022835839634467  0.1634340913742349  0.6644330283558872
  0.5799156512128931  0.4137316308510677  0.1689201934355609
  0.2503533908211253  0.7505814436805025  0.1669946861023206
  0.5823503793456268  0.7537020150828155  0.1668883451602738
  0.9183865814900471  0.7561595328114308  0.1695142659681466
  0.9180255359863239  0.0868637835773001  0.1689306907268460
  0.2523125392783143  0.4191389502613916  0.4997948410660342
  0.5826911979937890  0.4186630517819765  0.5010298102386272
  0.2519466051196346  0.7475003950408663  0.5004014214086467
  0.5797198432585091  0.7499401005007513  0.5020386034351674
  0.9173995674795208  0.7545599152693825  0.5000690944171851
  0.2486984575461690  0.0820816424207109  0.4988140225280944
  0.9156198294665572  0.0854269765010187  0.4987750039615619
  0.2465854674077264  0.4171112402881150  0.8332883025844993
  0.5845771975526404  0.4187508405656857  0.8338608945265875
  0.9186228988245446  0.4148263411873359  0.8298346337946754
  0.2487762756601413  0.7500502431987499  0.8330569817236650
  0.5807943318834532  0.7509762333809604  0.8292642558829115
  0.9147377679605952  0.7499517760791790  0.8293886857823196
  0.5849573933674037  0.0774275187268572  0.8318521475591822
  0.9164014473520936  0.0821427211944581  0.8329999832641022
  0.1661803280006495  0.1665578448051832  0.0011111736143974
  0.8346916492031724  0.1665705632211143  0.0028476284475900
  0.1636266827081059  0.4972716131097243  0.3297849151157806
  0.4933817284959972  0.4963061140372531  0.3322500910754442
  0.8371336567869534  0.8385197716198434  0.3354924310463971
  0.8308414961386035  0.1699979885573981  0.3333317249586045
  0.5037793112111473  0.5024771843422826  0.6674803887718994
  0.8338528842205619  0.4989506081045363  0.6658128097171812
  0.4993068166772261  0.8339656289983992  0.6657744498327958
  0.8332722711623575  0.8348100054028720  0.6661883753093818
  0.8320401171530349  0.1647301285479443  0.6639566830841233
  0.2476346244258494  0.4149176040763010  0.1680449739551406
  0.9204992892147601  0.4094156433561125  0.1657668184686472
  0.2481194313599886  0.0838925838344267  0.1659865343724931
  0.5886839370506536  0.0821570735871759  0.1678597999174798
  0.9157367547852289  0.4130813354918317  0.4995541262940648
  0.5878255566353445  0.0839749111142609  0.5017971417258451
  0.2485034322404260  0.0845379760926903  0.8361765547339246
  0.0082201743929389  0.3302496204902639  0.0071349539704499
  0.3268829243252114  0.3295905206492620  0.9980823590174595
  0.6688095189078638  0.3302019780328749  0.0030901896954063
  0.9975820254822594  0.6662238561151028  0.9998349556454045
  0.3327851351997353  0.6673259677656702  0.9995865180883214
  0.6682532521930540  0.6700291758378114  0.9968278252348028
  0.0007247048690360  0.0059916375788589  0.0015514037111757
  0.3291019907032222  0.0016402136961204  0.9994713304429155
  0.6690409059165319  0.0004061511695426  0.0015362446690403
  0.0007717819206050  0.3347809380228952  0.3353253532718981
  0.3282854437705680  0.3367462870162754  0.3319497588881433
  0.6682104647799179  0.3256927872899738  0.3332681106790787
  0.0031127558331008  0.6624716988964678  0.3328128949855440
  0.3328233428858027  0.6580775401368797  0.3311842109708820
  0.9972286232172252  0.0024783016942322  0.3334714105083805
  0.3365733824357164  0.0051063887886684  0.3352883398689102
  0.6701482821743880  0.0035674185935051  0.3347459597048967
  0.9938865245930373  0.3317291251162118  0.6642069462626736
  0.6682953027932754  0.3328640370938629  0.6611438319179754
  0.9966405880573248  0.6631989358101507  0.6639826931307056
  0.3365039224628390  0.6675413090353359  0.6657663747152824
  0.6653025802919075  0.6719139067731348  0.6691213161808420
  0.9982262063041816  0.9999835754147597  0.6686073136591659
  0.3350227105122059  0.9989754243498368  0.6686946152921962
  0.6667534476242523  0.9919896336541143  0.6589447895848934
  0.0839001794812688  0.5807384539772897  0.1709364135773654
  0.4100689036646727  0.5766360221433544  0.1655216175911960
  0.0864906166801589  0.9200794555622451  0.1674149348379146
  0.4165298806413631  0.9224967582338621  0.1662915497415725
  0.7524217600603080  0.9225772882261154  0.1726721023489688
  0.0853919164677563  0.2494215508562405  0.1647309724071704
  0.7514592281973904  0.2468225899764249  0.1665485414825056
  0.0827347489284307  0.5804069161129632  0.4978169642214212
  0.4144500825134116  0.5820117825685429  0.4990691204571220
  0.0817207111478879  0.9159260363504202  0.4970293790649194
  0.4182868678965761  0.9168228791260589  0.5013413968919238
  0.7519342299069649  0.9253966982990178  0.5026397654206605
  0.0734498206435745  0.2478599610537060  0.4938514214306338
  0.4219083035587659  0.2501607887677011  0.4996058162654506
  0.7528376118208229  0.2518828862877314  0.5033256331645362
  0.0805106777658153  0.5840504425022672  0.8319955638238881
  0.4161080626483553  0.5890799814627101  0.8342240681172939
  0.7498694522195777  0.5799412102656234  0.8292350846190502
  0.0850260014860353  0.9206700303035973  0.8346703757197602
  0.4130613882111902  0.9170373194833203  0.8300520478582740
  0.7495099804287406  0.9195053303740863  0.8307246502966237
  0.0793379159376784  0.2441113324710287  0.8321820514020644
  0.4194875079063536  0.2465401862242871  0.8392289590659630
  0.6667066143125950  0.6731011994011027  0.3375076296140236
  0.3333168594643610  0.3388874676995499  0.6684285924054976
  0.7549572531803435  0.5844138742468985  0.1642674413924183
  0.4132544338432567  0.2481304496099099  0.1657173332797228
  0.7517871323975740  0.5784052328575342  0.4993592804300349
  0.7542196444131335  0.2484744405333927  0.8350805683624216
  0.1217844415882681  0.4566930873704393  0.0914402454577328
  0.4441850690273768  0.4537216960781052  0.0818641737505885
  0.7943861068762388  0.4458767893612503  0.0837662623743469
  0.1130677664689088  0.7917023555148575  0.0832551694450032
  0.4455913333165213  0.7953189017792681  0.0825081153152425
  0.7813612349114791  0.7969386159770266  0.0853497620649861
  0.1236158861400725  0.1259979669950368  0.0836774517378061
  0.4589126244792112  0.1141721438996726  0.0856567572804110
  0.7842211883676597  0.1257074500294806  0.0795673205957286
  0.1177687345162752  0.4599451105359620  0.4114411328837946
  0.4474510912147522  0.4592506567576109  0.4129437289346072
  0.7902027322393010  0.4441602181095305  0.4142320782883999
  0.1161544631235714  0.7900607371711530  0.4167774297368823
  0.4439951350257587  0.7886542476101681  0.4148206472747376
  0.7904273185187805  0.8070038151135250  0.4181060037159767
  0.1138242490961048  0.1260659041295042  0.4157483700094957
  0.4596655146501405  0.1237251501733283  0.4234693260313094
  0.7838121066910801  0.1311584731471811  0.4133839389068044
  0.1102593555744278  0.4573884784489550  0.7483299120312807
  0.4587075140076351  0.4728003401703447  0.7520841703370422
  0.7850112343409634  0.4576288503759898  0.7436679677666973
  0.1114323686858896  0.7906684362991001  0.7498874165343565
  0.4479307198870472  0.7965002517949387  0.7441727626554595
  0.7823559205047701  0.7964464432327674  0.7446867929500343
  0.1193777171650581  0.1203897158499387  0.7555009933455210
  0.4507026069577549  0.1245269455330700  0.7508072054303199
  0.7843186668776028  0.1164612876792148  0.7379543942350466
  0.3010097079733711  0.6235216975409088  0.0824675866493934
  0.6278965819903348  0.6283331220148014  0.0763570664807318
  0.9727267665740413  0.6284824210239464  0.0887503865828947
  0.2985737584145625  0.9674976098332806  0.0874863711211731
  0.6378269572894908  0.9653963358637085  0.0892251281324192
  0.9703405458103873  0.9613611620466784  0.0844924640673810
  0.2845755259519649  0.2934467726884264  0.0798262080014638
  0.6339114407339466  0.2895729481229594  0.0854926134678564
  0.9622503133795206  0.2870023357462443  0.0831398158035483
  0.2931126149573871  0.6146567972848871  0.4107675190922961
  0.6157568321514617  0.6158545260241794  0.4128688932498434
  0.9683683343530944  0.6255481102364513  0.4171150273635007
  0.3035936438159581  0.9585368796248233  0.4161741946888924
  0.6346334921436778  0.9666986452212853  0.4203739466799590
  0.9641708521208869  0.9560404302126742  0.4137238287059049
  0.3054788010684959  0.2928012607033779  0.4179729088495350
  0.6346915531182873  0.2907619134694883  0.4188053979367439
  0.9572514964690768  0.2917451753130607  0.4142198401235220
  0.2996965046132232  0.6251522072203670  0.7472823380655598
  0.6310886369936881  0.6208612250050365  0.7467326291526035
  0.9611292000489726  0.6178184837211802  0.7441450915080949
  0.2978492667086527  0.9671578242582157  0.7557852500256956
  0.6290063321685935  0.9502741474265477  0.7406520199479729
  0.9619068361621430  0.9517039676592773  0.7464981862444304
  0.3025253195251238  0.2887465819807673  0.7573742275554878
  0.6318130646336897  0.2949424555887390  0.7445868498444952
  0.9617080220863627  0.2809077745305757  0.7436618645468087
  0.2056745762810053  0.3718632981657564  0.2489439065981003
  0.5460554956594521  0.3747559911182634  0.2628544606459755
  0.8785982154765151  0.3612875229480323  0.2436299802010709
  0.2094161765719278  0.6959147149187714  0.2505610146570234
  0.5291075162278958  0.6995676019880364  0.2433140997853656
  0.8837545634568542  0.7144163392496452  0.2620514392592099
  0.2123712577163701  0.0340328233875269  0.2460557089968702
  0.5469063194097501  0.0326771988019843  0.2452970181633916
  0.8734178232509109  0.0430063584118230  0.2566171511992721
  0.1955940842761024  0.3659791637102003  0.5746769928328561
  0.5400113613063198  0.3721938652506367  0.5877049911924246
  0.8738955902628902  0.3730095011554013  0.5831197517519868
  0.2075533542730525  0.6970475752942065  0.5843010266411710
  0.5360293139302854  0.7034351384603923  0.5879551405758860
  0.8780634903485378  0.7119493192042583  0.5900786886204088
  0.2088534741948180  0.0289827542326435  0.5830500608990192
  0.5462269971074676  0.0305849654958763  0.5772756522777698
  0.8761584297465959  0.0404225641922693  0.5882532970407581
  0.2025830468200169  0.3622752677718282  0.9145024563194539
  0.5450195889272536  0.3627769455036969  0.9181138773417246
  0.8909125180368846  0.3705987481804556  0.9235542888804460
  0.2061348118961916  0.6990202480244179  0.9170920034208194
  0.5413883630098653  0.7036691160604391  0.9167554889691729
  0.8736241183241376  0.6975595894385833  0.9142481395988824
  0.2079047272810541  0.0416171427334859  0.9185529807733772
  0.5418550836921341  0.0268354407705260  0.9154471161419622
  0.8720591775284348  0.0392379968532808  0.9212866747062378
  0.0391635034426514  0.5397126228303861  0.2488876840356866
  0.3722842825078558  0.5379060995656246  0.2480018577708734
  0.7096255255222346  0.5428489290427478  0.2511414414163369
  0.0443043487367447  0.8914237868610542  0.2517489974082139
  0.3745561845287853  0.8891409574999400  0.2492699857636325
  0.7159797390598399  0.8849513147287738  0.2565320628798773
  0.0449482376596535  0.2214397740085019  0.2512957698641003
  0.3645148113698014  0.2100312446392039  0.2527403092856488
  0.7081955840812810  0.2098204786642697  0.2481028670407284
  0.0303195742766178  0.5444511326970485  0.5746362523445896
  0.3838693211230577  0.5505678206773155  0.5886141050076859
  0.7125562846638260  0.5502261741247167  0.5951768755611084
  0.0431498868746729  0.8893201342958150  0.5843305820292386
  0.3811473661655569  0.8834153117835868  0.5875805237578291
  0.7149552246217894  0.8778623320646233  0.5816763620018861
  0.0430874451089878  0.2195217191728318  0.5845146751165586
  0.3776133996560276  0.2126066442904673  0.5783182276182615
  0.7102596021216172  0.2101049252191629  0.5826834786963886
  0.0419011366729265  0.5526840094934471  0.9172601058308985
  0.3737095192484503  0.5520346737271637  0.9148593615774629
  0.7135772667589322  0.5526338334655136  0.9182159987002763
  0.0395854541697958  0.8881548574450662  0.9160977146777327
  0.3718854530023350  0.8876142448625686  0.9151053402466687
  0.7082653320603924  0.8860569798287230  0.9143233386586047
  0.0471592010780952  0.2139998409745374  0.9219883927374042
  0.3684800636214689  0.2108866977181307  0.9163482957333642
  0.7129799863644166  0.2110832171606347  0.9253562301382274

  0.00000000E+00  0.00000000E+00  0.00000000E+00
  0.00000000E+00  0.00000000E+00  0.00000000E+00
  0.00000000E+00  0.00000000E+00  0.00000000E+00
  0.00000000E+00  0.00000000E+00  0.00000000E+00
  0.00000000E+00  0.00000000E+00  0.00000000E+00
  0.00000000E+00  0.00000000E+00  0.00000000E+00
  0.00000000E+00  0.00000000E+00  0.00000000E+00
  0.00000000E+00  0.00000000E+00  0.00000000E+00
  0.00000000E+00  0.00000000E+00  0.00000000E+00
  0.00000000E+00  0.00000000E+00  0.00000000E+00
  0.00000000E+00  0.00000000E+00  0.00000000E+00
  0.00000000E+00  0.00000000E+00  0.00000000E+00
  0.00000000E+00  0.00000000E+00  0.00000000E+00
  0.00000000E+00  0.00000000E+00  0.00000000E+00
  0.00000000E+00  0.00000000E+00  0.00000000E+00
  0.00000000E+00  0.00000000E+00  0.00000000E+00
  0.00000000E+00  0.00000000E+00  0.00000000E+00
  0.00000000E+00  0.00000000E+00  0.00000000E+00
  0.00000000E+00  0.00000000E+00  0.00000000E+00
  0.00000000E+00  0.00000000E+00  0.00000000E+00
  0.00000000E+00  0.00000000E+00  0.00000000E+00
  0.00000000E+00  0.00000000E+00  0.00000000E+00
  0.00000000E+00  0.00000000E+00  0.00000000E+00
  0.00000000E+00  0.00000000E+00  0.00000000E+00
  0.00000000E+00  0.00000000E+00  0.00000000E+00
  0.00000000E+00  0.00000000E+00  0.00000000E+00
  0.00000000E+00  0.00000000E+00  0.00000000E+00
  0.00000000E+00  0.00000000E+00  0.00000000E+00
  0.00000000E+00  0.00000000E+00  0.00000000E+00
  0.00000000E+00  0.00000000E+00  0.00000000E+00
  0.00000000E+00  0.00000000E+00  0.00000000E+00
  0.00000000E+00  0.00000000E+00  0.00000000E+00
  0.00000000E+00  0.00000000E+00  0.00000000E+00
  0.00000000E+00  0.00000000E+00  0.00000000E+00
  0.00000000E+00  0.00000000E+00  0.00000000E+00
  0.00000000E+00  0.00000000E+00  0.00000000E+00
  0.00000000E+00  0.00000000E+00  0.00000000E+00
  0.00000000E+00  0.00000000E+00  0.00000000E+00
  0.00000000E+00  0.00000000E+00  0.00000000E+00
  0.00000000E+00  0.00000000E+00  0.00000000E+00
  0.00000000E+00  0.00000000E+00  0.00000000E+00
  0.00000000E+00  0.00000000E+00  0.00000000E+00
  0.00000000E+00  0.00000000E+00  0.00000000E+00
  0.00000000E+00  0.00000000E+00  0.00000000E+00
  0.00000000E+00  0.00000000E+00  0.00000000E+00
  0.00000000E+00  0.00000000E+00  0.00000000E+00
  0.00000000E+00  0.00000000E+00  0.00000000E+00
  0.00000000E+00  0.00000000E+00  0.00000000E+00
  0.00000000E+00  0.00000000E+00  0.00000000E+00
  0.00000000E+00  0.00000000E+00  0.00000000E+00
  0.00000000E+00  0.00000000E+00  0.00000000E+00
  0.00000000E+00  0.00000000E+00  0.00000000E+00
  0.00000000E+00  0.00000000E+00  0.00000000E+00
  0.00000000E+00  0.00000000E+00  0.00000000E+00
  0.00000000E+00  0.00000000E+00  0.00000000E+00
  0.00000000E+00  0.00000000E+00  0.00000000E+00
  0.00000000E+00  0.00000000E+00  0.00000000E+00
  0.00000000E+00  0.00000000E+00  0.00000000E+00
  0.00000000E+00  0.00000000E+00  0.00000000E+00
  0.00000000E+00  0.00000000E+00  0.00000000E+00
  0.00000000E+00  0.00000000E+00  0.00000000E+00
  0.00000000E+00  0.00000000E+00  0.00000000E+00
  0.00000000E+00  0.00000000E+00  0.00000000E+00
  0.00000000E+00  0.00000000E+00  0.00000000E+00
  0.00000000E+00  0.00000000E+00  0.00000000E+00
  0.00000000E+00  0.00000000E+00  0.00000000E+00
  0.00000000E+00  0.00000000E+00  0.00000000E+00
  0.00000000E+00  0.00000000E+00  0.00000000E+00
  0.00000000E+00  0.00000000E+00  0.00000000E+00
  0.00000000E+00  0.00000000E+00  0.00000000E+00
  0.00000000E+00  0.00000000E+00  0.00000000E+00
  0.00000000E+00  0.00000000E+00  0.00000000E+00
  0.00000000E+00  0.00000000E+00  0.00000000E+00
  0.00000000E+00  0.00000000E+00  0.00000000E+00
  0.00000000E+00  0.00000000E+00  0.00000000E+00
  0.00000000E+00  0.00000000E+00  0.00000000E+00
  0.00000000E+00  0.00000000E+00  0.00000000E+00
  0.00000000E+00  0.00000000E+00  0.00000000E+00
  0.00000000E+00  0.00000000E+00  0.00000000E+00
  0.00000000E+00  0.00000000E+00  0.00000000E+00
  0.00000000E+00  0.00000000E+00  0.00000000E+00
  0.00000000E+00  0.00000000E+00  0.00000000E+00
  0.00000000E+00  0.00000000E+00  0.00000000E+00
  0.00000000E+00  0.00000000E+00  0.00000000E+00
  0.00000000E+00  0.00000000E+00  0.00000000E+00
  0.00000000E+00  0.00000000E+00  0.00000000E+00
  0.00000000E+00  0.00000000E+00  0.00000000E+00
  0.00000000E+00  0.00000000E+00  0.00000000E+00
  0.00000000E+00  0.00000000E+00  0.00000000E+00
  0.00000000E+00  0.00000000E+00  0.00000000E+00
  0.00000000E+00  0.00000000E+00  0.00000000E+00
  0.00000000E+00  0.00000000E+00  0.00000000E+00
  0.00000000E+00  0.00000000E+00  0.00000000E+00
  0.00000000E+00  0.00000000E+00  0.00000000E+00
  0.00000000E+00  0.00000000E+00  0.00000000E+00
  0.00000000E+00  0.00000000E+00  0.00000000E+00
  0.00000000E+00  0.00000000E+00  0.00000000E+00
  0.00000000E+00  0.00000000E+00  0.00000000E+00
  0.00000000E+00  0.00000000E+00  0.00000000E+00
  0.00000000E+00  0.00000000E+00  0.00000000E+00
  0.00000000E+00  0.00000000E+00  0.00000000E+00
  0.00000000E+00  0.00000000E+00  0.00000000E+00
  0.00000000E+00  0.00000000E+00  0.00000000E+00
  0.00000000E+00  0.00000000E+00  0.00000000E+00
  0.00000000E+00  0.00000000E+00  0.00000000E+00
  0.00000000E+00  0.00000000E+00  0.00000000E+00
  0.00000000E+00  0.00000000E+00  0.00000000E+00
  0.00000000E+00  0.00000000E+00  0.00000000E+00
  0.00000000E+00  0.00000000E+00  0.00000000E+00
  0.00000000E+00  0.00000000E+00  0.00000000E+00
  0.00000000E+00  0.00000000E+00  0.00000000E+00
  0.00000000E+00  0.00000000E+00  0.00000000E+00
  0.00000000E+00  0.00000000E+00  0.00000000E+00
  0.00000000E+00  0.00000000E+00  0.00000000E+00
  0.00000000E+00  0.00000000E+00  0.00000000E+00
  0.00000000E+00  0.00000000E+00  0.00000000E+00
  0.00000000E+00  0.00000000E+00  0.00000000E+00
  0.00000000E+00  0.00000000E+00  0.00000000E+00
  0.00000000E+00  0.00000000E+00  0.00000000E+00
  0.00000000E+00  0.00000000E+00  0.00000000E+00
  0.00000000E+00  0.00000000E+00  0.00000000E+00
  0.00000000E+00  0.00000000E+00  0.00000000E+00
  0.00000000E+00  0.00000000E+00  0.00000000E+00
  0.00000000E+00  0.00000000E+00  0.00000000E+00
  0.00000000E+00  0.00000000E+00  0.00000000E+00
  0.00000000E+00  0.00000000E+00  0.00000000E+00
  0.00000000E+00  0.00000000E+00  0.00000000E+00
  0.00000000E+00  0.00000000E+00  0.00000000E+00
  0.00000000E+00  0.00000000E+00  0.00000000E+00
  0.00000000E+00  0.00000000E+00  0.00000000E+00
  0.00000000E+00  0.00000000E+00  0.00000000E+00
  0.00000000E+00  0.00000000E+00  0.00000000E+00
  0.00000000E+00  0.00000000E+00  0.00000000E+00
  0.00000000E+00  0.00000000E+00  0.00000000E+00
  0.00000000E+00  0.00000000E+00  0.00000000E+00
  0.00000000E+00  0.00000000E+00  0.00000000E+00
  0.00000000E+00  0.00000000E+00  0.00000000E+00
  0.00000000E+00  0.00000000E+00  0.00000000E+00
  0.00000000E+00  0.00000000E+00  0.00000000E+00
  0.00000000E+00  0.00000000E+00  0.00000000E+00
  0.00000000E+00  0.00000000E+00  0.00000000E+00
  0.00000000E+00  0.00000000E+00  0.00000000E+00
  0.00000000E+00  0.00000000E+00  0.00000000E+00
  0.00000000E+00  0.00000000E+00  0.00000000E+00
  0.00000000E+00  0.00000000E+00  0.00000000E+00
  0.00000000E+00  0.00000000E+00  0.00000000E+00
  0.00000000E+00  0.00000000E+00  0.00000000E+00
  0.00000000E+00  0.00000000E+00  0.00000000E+00
  0.00000000E+00  0.00000000E+00  0.00000000E+00
  0.00000000E+00  0.00000000E+00  0.00000000E+00
  0.00000000E+00  0.00000000E+00  0.00000000E+00
  0.00000000E+00  0.00000000E+00  0.00000000E+00
  0.00000000E+00  0.00000000E+00  0.00000000E+00
  0.00000000E+00  0.00000000E+00  0.00000000E+00
  0.00000000E+00  0.00000000E+00  0.00000000E+00
  0.00000000E+00  0.00000000E+00  0.00000000E+00
  0.00000000E+00  0.00000000E+00  0.00000000E+00
  0.00000000E+00  0.00000000E+00  0.00000000E+00
  0.00000000E+00  0.00000000E+00  0.00000000E+00
  0.00000000E+00  0.00000000E+00  0.00000000E+00
  0.00000000E+00  0.00000000E+00  0.00000000E+00
  0.00000000E+00  0.00000000E+00  0.00000000E+00
  0.00000000E+00  0.00000000E+00  0.00000000E+00
  0.00000000E+00  0.00000000E+00  0.00000000E+00
  0.00000000E+00  0.00000000E+00  0.00000000E+00
  0.00000000E+00  0.00000000E+00  0.00000000E+00
  0.00000000E+00  0.00000000E+00  0.00000000E+00
  0.00000000E+00  0.00000000E+00  0.00000000E+00
  0.00000000E+00  0.00000000E+00  0.00000000E+00
  0.00000000E+00  0.00000000E+00  0.00000000E+00
  0.00000000E+00  0.00000000E+00  0.00000000E+00
  0.00000000E+00  0.00000000E+00  0.00000000E+00
  0.00000000E+00  0.00000000E+00  0.00000000E+00
  0.00000000E+00  0.00000000E+00  0.00000000E+00
  0.00000000E+00  0.00000000E+00  0.00000000E+00
  0.00000000E+00  0.00000000E+00  0.00000000E+00
  0.00000000E+00  0.00000000E+00  0.00000000E+00
  0.00000000E+00  0.00000000E+00  0.00000000E+00
  0.00000000E+00  0.00000000E+00  0.00000000E+00
  0.00000000E+00  0.00000000E+00  0.00000000E+00
  0.00000000E+00  0.00000000E+00  0.00000000E+00
  0.00000000E+00  0.00000000E+00  0.00000000E+00
  0.00000000E+00  0.00000000E+00  0.00000000E+00
  0.00000000E+00  0.00000000E+00  0.00000000E+00
  0.00000000E+00  0.00000000E+00  0.00000000E+00
  0.00000000E+00  0.00000000E+00  0.00000000E+00
  0.00000000E+00  0.00000000E+00  0.00000000E+00
  0.00000000E+00  0.00000000E+00  0.00000000E+00
  0.00000000E+00  0.00000000E+00  0.00000000E+00
  0.00000000E+00  0.00000000E+00  0.00000000E+00
  0.00000000E+00  0.00000000E+00  0.00000000E+00
  0.00000000E+00  0.00000000E+00  0.00000000E+00
  0.00000000E+00  0.00000000E+00  0.00000000E+00
  0.00000000E+00  0.00000000E+00  0.00000000E+00
  0.00000000E+00  0.00000000E+00  0.00000000E+00
  0.00000000E+00  0.00000000E+00  0.00000000E+00
  0.00000000E+00  0.00000000E+00  0.00000000E+00
  0.00000000E+00  0.00000000E+00  0.00000000E+00
  0.00000000E+00  0.00000000E+00  0.00000000E+00
  0.00000000E+00  0.00000000E+00  0.00000000E+00
  0.00000000E+00  0.00000000E+00  0.00000000E+00
  0.00000000E+00  0.00000000E+00  0.00000000E+00
  0.00000000E+00  0.00000000E+00  0.00000000E+00
  0.00000000E+00  0.00000000E+00  0.00000000E+00
  0.00000000E+00  0.00000000E+00  0.00000000E+00
  0.00000000E+00  0.00000000E+00  0.00000000E+00
  0.00000000E+00  0.00000000E+00  0.00000000E+00
  0.00000000E+00  0.00000000E+00  0.00000000E+00
  0.00000000E+00  0.00000000E+00  0.00000000E+00
  0.00000000E+00  0.00000000E+00  0.00000000E+00
  0.00000000E+00  0.00000000E+00  0.00000000E+00
  0.00000000E+00  0.00000000E+00  0.00000000E+00
  0.00000000E+00  0.00000000E+00  0.00000000E+00
  0.00000000E+00  0.00000000E+00  0.00000000E+00
  0.00000000E+00  0.00000000E+00  0.00000000E+00
  0.00000000E+00  0.00000000E+00  0.00000000E+00
