In12 Ga42 Cu54 Se108                    
   1.0000000000000000     
    15.6723997905074022   -0.0033146951012462   -7.0243675508503287
    -3.1455838460538055   15.3483762116099829   -7.0197061947087169
     0.0007713403380004   -0.0000390756673100   20.9879341509283250
   In   Ga   Cu   Se
    12    42    54   108
Direct
  0.4990312106872636  0.4999500625934985  0.9993435081639390
  0.8314028393941513  0.4981238668698467  0.9986189499275540
  0.4987280287205493  0.8343320489158117  0.9997344781786310
  0.8318260911411173  0.4975445156157861  0.3337752788744481
  0.9188675361076974  0.4147234720645869  0.1671251762168353
  0.9180867422244461  0.7534155107489582  0.1690954351482219
  0.2510852632309621  0.4160669398541827  0.5002576796176896
  0.9169572842498468  0.7532547735046933  0.5017755856958530
  0.9178964762239374  0.4161215987994069  0.8315412437584726
  0.9169671300420461  0.7487967199099259  0.8336413721297973
  0.2512931021620091  0.0832872558964084  0.8332474513728698
  0.5818970722504133  0.0832919892958373  0.8330167218420073
  0.1695998898995015  0.5014066588537958  0.0020378945531903
  0.1699960842444668  0.8361791738901516  0.0022160076946420
  0.8313419948465324  0.8353363953080972  0.0003970599155068
  0.1665081582360983  0.1659038825305288  0.0021696090667973
  0.5006758711729660  0.1678040398629719  0.0036209414640425
  0.8373702997579286  0.1647865793644243  0.0001550357007503
  0.1686360510420215  0.5022672012262035  0.3335921909498083
  0.4996543988312396  0.4996899772074528  0.3338631800559924
  0.1710397378231789  0.8370140004200408  0.3357415292821813
  0.4995446257841891  0.8345902953915356  0.3339117775989706
  0.8306840231323278  0.8353212284529903  0.3339601614346179
  0.1684071499430004  0.1639736017429811  0.3320942662314863
  0.4997538859846813  0.1662241288282189  0.3337407830906685
  0.8332480114718948  0.1669661149311139  0.3341850644517734
  0.1649302581015419  0.5000298519321191  0.6675644590279859
  0.5016622811377260  0.5009508180147364  0.6672685771059435
  0.8309401463618329  0.4973781552943066  0.6634204279735272
  0.1686216624436057  0.8324623755650080  0.6660236539609912
  0.4999616923143222  0.8312915937889329  0.6641957125094109
  0.8308574894977880  0.8338704247320905  0.6662733165507717
  0.1649707968948135  0.1669992867950540  0.6642692879811705
  0.4986092993550741  0.1668898591342440  0.6638219658062283
  0.8324716708791087  0.1631606523836737  0.6642865470412787
  0.2510870146680588  0.4161963768036685  0.1672226525939919
  0.5800465339140430  0.4150351626032034  0.1674146933316933
  0.2517829157424742  0.7517708498143492  0.1678393418788957
  0.5835676866343249  0.7531416201884440  0.1695523781280954
  0.2523433888257784  0.0832855458561355  0.1676870129200907
  0.5833990283156183  0.0862909714828959  0.1692590312739810
  0.9178191404025142  0.0832187776879678  0.1674135013187836
  0.5819086174403836  0.4153966027803833  0.4996428914958173
  0.9161682925206307  0.4153150122442284  0.5018125932398334
  0.2508983888553900  0.7501430747285553  0.4998532072303590
  0.5833268606174542  0.7503343194141578  0.4991063481815772
  0.2509913353823734  0.0848706068347127  0.4997909771935554
  0.5830789345278475  0.0835390108625447  0.4997142560662695
  0.9156845414366614  0.0822700315615350  0.4992930188223710
  0.2466222029708689  0.4160416216295673  0.8314114049239976
  0.5811428806947632  0.4138658983184840  0.8288136540229445
  0.2463095731010938  0.7503650699106430  0.8310676525421599
  0.5838427398675634  0.7494140179499027  0.8309202776476710
  0.9171987530412409  0.0818933300221403  0.8326512712935994
  0.0062024879158713  0.3297404295025643  0.9996590384064490
  0.3309891029828691  0.3330317987445568  0.0007663040088488
  0.6654454842395978  0.3311006349819579  0.0008691372677916
  0.0046929274570218  0.6710564132750463  0.0028904807171912
  0.3294367356078922  0.6658530427718574  0.9991992233496916
  0.6636039977491706  0.6680171510638999  0.9965627815106117
  0.0009876057592919  0.0024953232482119  0.0028190670686072
  0.3335710357057806  0.0011395793837394  0.0032338001724384
  0.6689823932339536  0.0006676782449730  0.0013541825481624
  0.0022770141289357  0.3289472442880736  0.3347552584310378
  0.3342710812272855  0.3328116411053514  0.3308979337784450
  0.6654576473562273  0.3321142136168689  0.3353506245677167
  0.0055424115650951  0.6711060184444051  0.3358993036021189
  0.3343211483433137  0.6675325327469608  0.3346706645483621
  0.6610980217496873  0.6665943129746523  0.3325862401159796
  0.0018775816407128  0.0045924466998812  0.3372737814202793
  0.3339941615475439  0.0009966646752133  0.3345661200235313
  0.6666292087924575  0.0015094488472229  0.3339864924859555
  0.9997783035762282  0.3305170367461798  0.6633362602091566
  0.3327216077130331  0.3310028359495902  0.6673443529691241
  0.6638450421461783  0.3313794620758586  0.6636248996131613
  0.0005654721472865  0.6642384949155797  0.6655518585053173
  0.3346999514676767  0.6702947311045051  0.6686312969991306
  0.6635510098713482  0.6659584932047196  0.6632419350078322
  0.9975162915007019  0.0011550785260468  0.6668575414921136
  0.3303555503256348  0.9969500569157006  0.6598835038875777
  0.6667335487173389  0.9984693176057533  0.6632351993398800
  0.0919963480689887  0.5840279187008051  0.1686120105434270
  0.4159941767832791  0.5853145616879516  0.1699360421211864
  0.7468925679503400  0.5892429382135944  0.1705640057920377
  0.0847586122963051  0.9182186307281270  0.1664830123750889
  0.4185801681346817  0.9177832344387937  0.1705629144544858
  0.7519249733217848  0.9212401552874283  0.1703703558640086
  0.0877413900173778  0.2495033517011365  0.1705527007038938
  0.4166101373162618  0.2508226010284673  0.1673166362523375
  0.7455058056246813  0.2432375635556454  0.1637669800806805
  0.0870302247036108  0.5826649651933025  0.5023376780026823
  0.4177130903443782  0.5827219723045616  0.4988296940014365
  0.7461050384597741  0.5842548024122252  0.5018213711669759
  0.0839784252736280  0.9187291434110065  0.4990515673865090
  0.4185775264565876  0.9168759755004388  0.4999167728296143
  0.7464223571211122  0.9182007674704877  0.4980694295453958
  0.0817672683044748  0.2494864377047250  0.4990288099017448
  0.4172647843579540  0.2484664873580797  0.4990289951892564
  0.7490196614895765  0.2481202657108454  0.4996179309293041
  0.0868525179893638  0.5832570055920954  0.8341665304585533
  0.4116945948939872  0.5797939797624423  0.8266684665365815
  0.7474379213710733  0.5849489293704053  0.8314776313351828
  0.0825117616891049  0.9157771660016536  0.8320467774796967
  0.4167753286266773  0.9152490712631618  0.8321322309947305
  0.7491955940300556  0.9174886505326114  0.8335190885392620
  0.0849692959938579  0.2509474552109197  0.8343470910888939
  0.4151682220651622  0.2494352217432620  0.8307140674665447
  0.7475793297193221  0.2446450020823789  0.8292131275307426
  0.1249965217377920  0.4571276041094166  0.0832490446926144
  0.4522058539850775  0.4572812319867623  0.0884654130684908
  0.7798025713439714  0.4610562170766883  0.0869716156691496
  0.1260611217607206  0.7946706067542380  0.0850523367595386
  0.4527049576802895  0.7894533157424206  0.0878812265064113
  0.7815893697173806  0.7958170079849580  0.0800243181674460
  0.1250102731030225  0.1252862762365368  0.0863997906351557
  0.4555584013600011  0.1256576706171657  0.0852066419731372
  0.7916802339992302  0.1237468510741238  0.0826282088954144
  0.1168777607826001  0.4589957284127095  0.4109254608685760
  0.4559331166163076  0.4574014620995328  0.4163561126861737
  0.7864428855688104  0.4567623863275898  0.4239750086088776
  0.1263526144663558  0.7953740918284637  0.4182158691472466
  0.4569067369535773  0.7920126318294436  0.4166355187624049
  0.7801657578498649  0.7934710571021526  0.4119714462410826
  0.1252625949090671  0.1277971335114145  0.4178652478644338
  0.4567425724587082  0.1245203997450446  0.4167307991153280
  0.7895349139871470  0.1247631124143211  0.4168218672220618
  0.1198675610795590  0.4566127562440201  0.7487764741343668
  0.4541774549661355  0.4557328814945762  0.7466967715699795
  0.7817107898808686  0.4601195007874850  0.7447469933297057
  0.1201951326369723  0.7912675430245031  0.7473043316437753
  0.4582331411500817  0.7932108755320755  0.7500110260291848
  0.7820042296810570  0.7929345470851814  0.7456823158539692
  0.1171022891211422  0.1274510552610693  0.7451344304200589
  0.4475486062742249  0.1253396727105454  0.7422392277704049
  0.7897354553284259  0.1217067522063360  0.7479964125851239
  0.2951474385877191  0.6260239735761459  0.0853007205324090
  0.6319438786330238  0.6348263180312088  0.0870168889766063
  0.9711372702185557  0.6247360668785547  0.0850273679806506
  0.2975758556722923  0.9588696105414982  0.0866837401108782
  0.6333310591562835  0.9669735168903273  0.0896325165072511
  0.9603818177717898  0.9580427259499587  0.0837876402359896
  0.2931022893123014  0.2905438589938640  0.0837779722611103
  0.6267545861033241  0.2915565514067069  0.0851685957855679
  0.9674056088561471  0.2835814065691551  0.0799518780177166
  0.2954762928998633  0.6256841071771291  0.4177664321657417
  0.6260304373902841  0.6245853526096923  0.4166919959986544
  0.9699587914627585  0.6251857323677399  0.4175271835376151
  0.2971755929334705  0.9609342618082124  0.4190459825134027
  0.6252739283123674  0.9596221074480127  0.4157433032307765
  0.9593523013802141  0.9581477952806807  0.4163351069435777
  0.2966480840405907  0.2844943900558050  0.4107612356321582
  0.6260222144596312  0.2902821281836196  0.4177983732098340
  0.9598532833347519  0.2915167712111995  0.4178286783807437
  0.2904069117345074  0.6258623709804851  0.7478223418701759
  0.6273896323773016  0.6260692531460563  0.7479803163879382
  0.9623344689474678  0.6157247889349122  0.7452108859737905
  0.2976771019624067  0.9520112185489111  0.7438057243398930
  0.6282578884026861  0.9521147123737990  0.7438207030150750
  0.9596894750223015  0.9568852856268819  0.7490178630705628
  0.2918042759417645  0.2913594907514110  0.7502741875562222
  0.6272145877068240  0.2895715230733273  0.7478104758513382
  0.9622502385858880  0.2826540850835926  0.7432771880045621
  0.2093324459409587  0.3741337805737430  0.2508843239690179
  0.5417152656207094  0.3721682660171979  0.2521544431041605
  0.8739055129412634  0.3591201442078003  0.2492962992387078
  0.2120226056721677  0.7096474137701492  0.2522658791034402
  0.5395885296006853  0.7078139432718160  0.2504147581058831
  0.8742533849957113  0.7063510811413067  0.2574064297842540
  0.2102215503993037  0.0385307052434172  0.2495516029467097
  0.5420669993278580  0.0403670661071089  0.2510551615611121
  0.8772871275016740  0.0415937318359241  0.2522339301016032
  0.2055956509649661  0.3707441525858144  0.5883406776850109
  0.5394570069237972  0.3723842755938023  0.5822660339129797
  0.8736772004902491  0.3698653404350978  0.5829695218849693
  0.2096902814321169  0.7057052044586811  0.5828956854980021
  0.5405345550822460  0.7053599922624088  0.5803175437372303
  0.8717788154306518  0.7039615592964950  0.5881350534108023
  0.2074755588003114  0.0412127753296261  0.5813390399307323
  0.5419915416991827  0.0399840698798002  0.5828479889637634
  0.8727988492818142  0.0366802066672491  0.5806612111060190
  0.2083375522318960  0.3736566445156555  0.9170040113966351
  0.5436255945164561  0.3654643104717366  0.9106120214349502
  0.8763973090415789  0.3607826505455378  0.9156619283930638
  0.2078708676220629  0.7084737447253247  0.9164671675931544
  0.5389206491659166  0.6991936875550024  0.9079640380600793
  0.8729178994600204  0.7044523590272576  0.9230682191168995
  0.2065834504899939  0.0377350564780912  0.9216159382256777
  0.5393960063742327  0.0378317878547421  0.9225814937081651
  0.8756666147566179  0.0371432262833267  0.9155173710419646
  0.0496521324688572  0.5516248800761403  0.2535102351063614
  0.3747537774737211  0.5439120762155270  0.2518055020933829
  0.6987890728240771  0.5451366211190631  0.2469128516150931
  0.0507838115396027  0.8876117739205398  0.2571107093260494
  0.3753408958692077  0.8787257522515262  0.2521515126124996
  0.7079022536536996  0.8798505121117159  0.2507336782780172
  0.0437702469787951  0.2086954487782435  0.2510641745310878
  0.3762614638956521  0.2097544852899063  0.2498007863107929
  0.7081495872139740  0.2115851426869995  0.2522008216545117
  0.0413210262315360  0.5418517148831938  0.5820400514188364
  0.3823345759879331  0.5516621421645738  0.5884318787213303
  0.7055243551828170  0.5423618224282549  0.5830339726561107
  0.0502795034670811  0.8863552206500813  0.5890298507332403
  0.3760431903853529  0.8756072403458504  0.5812867946683014
  0.7079530476085480  0.8762801988667803  0.5806641951433278
  0.0401170743822590  0.2082760853083272  0.5801799684901994
  0.3746224534842213  0.2117844449747679  0.5821696968259786
  0.7082577588056154  0.2093069992998764  0.5831218992448655
  0.0500316823177158  0.5512527528094893  0.9221109035253292
  0.3662689335486320  0.5457678446695340  0.9101521261892316
  0.6996408716415274  0.5444863016765780  0.9099389108647316
  0.0485525262679758  0.8842110963064158  0.9223293668929884
  0.3658125433444610  0.8798857770376998  0.9112399635134096
  0.7072883911912271  0.8777256011663965  0.9157669165727356
  0.0439373818055557  0.2070129725239838  0.9149902681555986
  0.3830341232030321  0.2181841741941639  0.9220817841958535
  0.7165102324366686  0.2157856833735181  0.9221325042382631

  0.00000000E+00  0.00000000E+00  0.00000000E+00
  0.00000000E+00  0.00000000E+00  0.00000000E+00
  0.00000000E+00  0.00000000E+00  0.00000000E+00
  0.00000000E+00  0.00000000E+00  0.00000000E+00
  0.00000000E+00  0.00000000E+00  0.00000000E+00
  0.00000000E+00  0.00000000E+00  0.00000000E+00
  0.00000000E+00  0.00000000E+00  0.00000000E+00
  0.00000000E+00  0.00000000E+00  0.00000000E+00
  0.00000000E+00  0.00000000E+00  0.00000000E+00
  0.00000000E+00  0.00000000E+00  0.00000000E+00
  0.00000000E+00  0.00000000E+00  0.00000000E+00
  0.00000000E+00  0.00000000E+00  0.00000000E+00
  0.00000000E+00  0.00000000E+00  0.00000000E+00
  0.00000000E+00  0.00000000E+00  0.00000000E+00
  0.00000000E+00  0.00000000E+00  0.00000000E+00
  0.00000000E+00  0.00000000E+00  0.00000000E+00
  0.00000000E+00  0.00000000E+00  0.00000000E+00
  0.00000000E+00  0.00000000E+00  0.00000000E+00
  0.00000000E+00  0.00000000E+00  0.00000000E+00
  0.00000000E+00  0.00000000E+00  0.00000000E+00
  0.00000000E+00  0.00000000E+00  0.00000000E+00
  0.00000000E+00  0.00000000E+00  0.00000000E+00
  0.00000000E+00  0.00000000E+00  0.00000000E+00
  0.00000000E+00  0.00000000E+00  0.00000000E+00
  0.00000000E+00  0.00000000E+00  0.00000000E+00
  0.00000000E+00  0.00000000E+00  0.00000000E+00
  0.00000000E+00  0.00000000E+00  0.00000000E+00
  0.00000000E+00  0.00000000E+00  0.00000000E+00
  0.00000000E+00  0.00000000E+00  0.00000000E+00
  0.00000000E+00  0.00000000E+00  0.00000000E+00
  0.00000000E+00  0.00000000E+00  0.00000000E+00
  0.00000000E+00  0.00000000E+00  0.00000000E+00
  0.00000000E+00  0.00000000E+00  0.00000000E+00
  0.00000000E+00  0.00000000E+00  0.00000000E+00
  0.00000000E+00  0.00000000E+00  0.00000000E+00
  0.00000000E+00  0.00000000E+00  0.00000000E+00
  0.00000000E+00  0.00000000E+00  0.00000000E+00
  0.00000000E+00  0.00000000E+00  0.00000000E+00
  0.00000000E+00  0.00000000E+00  0.00000000E+00
  0.00000000E+00  0.00000000E+00  0.00000000E+00
  0.00000000E+00  0.00000000E+00  0.00000000E+00
  0.00000000E+00  0.00000000E+00  0.00000000E+00
  0.00000000E+00  0.00000000E+00  0.00000000E+00
  0.00000000E+00  0.00000000E+00  0.00000000E+00
  0.00000000E+00  0.00000000E+00  0.00000000E+00
  0.00000000E+00  0.00000000E+00  0.00000000E+00
  0.00000000E+00  0.00000000E+00  0.00000000E+00
  0.00000000E+00  0.00000000E+00  0.00000000E+00
  0.00000000E+00  0.00000000E+00  0.00000000E+00
  0.00000000E+00  0.00000000E+00  0.00000000E+00
  0.00000000E+00  0.00000000E+00  0.00000000E+00
  0.00000000E+00  0.00000000E+00  0.00000000E+00
  0.00000000E+00  0.00000000E+00  0.00000000E+00
  0.00000000E+00  0.00000000E+00  0.00000000E+00
  0.00000000E+00  0.00000000E+00  0.00000000E+00
  0.00000000E+00  0.00000000E+00  0.00000000E+00
  0.00000000E+00  0.00000000E+00  0.00000000E+00
  0.00000000E+00  0.00000000E+00  0.00000000E+00
  0.00000000E+00  0.00000000E+00  0.00000000E+00
  0.00000000E+00  0.00000000E+00  0.00000000E+00
  0.00000000E+00  0.00000000E+00  0.00000000E+00
  0.00000000E+00  0.00000000E+00  0.00000000E+00
  0.00000000E+00  0.00000000E+00  0.00000000E+00
  0.00000000E+00  0.00000000E+00  0.00000000E+00
  0.00000000E+00  0.00000000E+00  0.00000000E+00
  0.00000000E+00  0.00000000E+00  0.00000000E+00
  0.00000000E+00  0.00000000E+00  0.00000000E+00
  0.00000000E+00  0.00000000E+00  0.00000000E+00
  0.00000000E+00  0.00000000E+00  0.00000000E+00
  0.00000000E+00  0.00000000E+00  0.00000000E+00
  0.00000000E+00  0.00000000E+00  0.00000000E+00
  0.00000000E+00  0.00000000E+00  0.00000000E+00
  0.00000000E+00  0.00000000E+00  0.00000000E+00
  0.00000000E+00  0.00000000E+00  0.00000000E+00
  0.00000000E+00  0.00000000E+00  0.00000000E+00
  0.00000000E+00  0.00000000E+00  0.00000000E+00
  0.00000000E+00  0.00000000E+00  0.00000000E+00
  0.00000000E+00  0.00000000E+00  0.00000000E+00
  0.00000000E+00  0.00000000E+00  0.00000000E+00
  0.00000000E+00  0.00000000E+00  0.00000000E+00
  0.00000000E+00  0.00000000E+00  0.00000000E+00
  0.00000000E+00  0.00000000E+00  0.00000000E+00
  0.00000000E+00  0.00000000E+00  0.00000000E+00
  0.00000000E+00  0.00000000E+00  0.00000000E+00
  0.00000000E+00  0.00000000E+00  0.00000000E+00
  0.00000000E+00  0.00000000E+00  0.00000000E+00
  0.00000000E+00  0.00000000E+00  0.00000000E+00
  0.00000000E+00  0.00000000E+00  0.00000000E+00
  0.00000000E+00  0.00000000E+00  0.00000000E+00
  0.00000000E+00  0.00000000E+00  0.00000000E+00
  0.00000000E+00  0.00000000E+00  0.00000000E+00
  0.00000000E+00  0.00000000E+00  0.00000000E+00
  0.00000000E+00  0.00000000E+00  0.00000000E+00
  0.00000000E+00  0.00000000E+00  0.00000000E+00
  0.00000000E+00  0.00000000E+00  0.00000000E+00
  0.00000000E+00  0.00000000E+00  0.00000000E+00
  0.00000000E+00  0.00000000E+00  0.00000000E+00
  0.00000000E+00  0.00000000E+00  0.00000000E+00
  0.00000000E+00  0.00000000E+00  0.00000000E+00
  0.00000000E+00  0.00000000E+00  0.00000000E+00
  0.00000000E+00  0.00000000E+00  0.00000000E+00
  0.00000000E+00  0.00000000E+00  0.00000000E+00
  0.00000000E+00  0.00000000E+00  0.00000000E+00
  0.00000000E+00  0.00000000E+00  0.00000000E+00
  0.00000000E+00  0.00000000E+00  0.00000000E+00
  0.00000000E+00  0.00000000E+00  0.00000000E+00
  0.00000000E+00  0.00000000E+00  0.00000000E+00
  0.00000000E+00  0.00000000E+00  0.00000000E+00
  0.00000000E+00  0.00000000E+00  0.00000000E+00
  0.00000000E+00  0.00000000E+00  0.00000000E+00
  0.00000000E+00  0.00000000E+00  0.00000000E+00
  0.00000000E+00  0.00000000E+00  0.00000000E+00
  0.00000000E+00  0.00000000E+00  0.00000000E+00
  0.00000000E+00  0.00000000E+00  0.00000000E+00
  0.00000000E+00  0.00000000E+00  0.00000000E+00
  0.00000000E+00  0.00000000E+00  0.00000000E+00
  0.00000000E+00  0.00000000E+00  0.00000000E+00
  0.00000000E+00  0.00000000E+00  0.00000000E+00
  0.00000000E+00  0.00000000E+00  0.00000000E+00
  0.00000000E+00  0.00000000E+00  0.00000000E+00
  0.00000000E+00  0.00000000E+00  0.00000000E+00
  0.00000000E+00  0.00000000E+00  0.00000000E+00
  0.00000000E+00  0.00000000E+00  0.00000000E+00
  0.00000000E+00  0.00000000E+00  0.00000000E+00
  0.00000000E+00  0.00000000E+00  0.00000000E+00
  0.00000000E+00  0.00000000E+00  0.00000000E+00
  0.00000000E+00  0.00000000E+00  0.00000000E+00
  0.00000000E+00  0.00000000E+00  0.00000000E+00
  0.00000000E+00  0.00000000E+00  0.00000000E+00
  0.00000000E+00  0.00000000E+00  0.00000000E+00
  0.00000000E+00  0.00000000E+00  0.00000000E+00
  0.00000000E+00  0.00000000E+00  0.00000000E+00
  0.00000000E+00  0.00000000E+00  0.00000000E+00
  0.00000000E+00  0.00000000E+00  0.00000000E+00
  0.00000000E+00  0.00000000E+00  0.00000000E+00
  0.00000000E+00  0.00000000E+00  0.00000000E+00
  0.00000000E+00  0.00000000E+00  0.00000000E+00
  0.00000000E+00  0.00000000E+00  0.00000000E+00
  0.00000000E+00  0.00000000E+00  0.00000000E+00
  0.00000000E+00  0.00000000E+00  0.00000000E+00
  0.00000000E+00  0.00000000E+00  0.00000000E+00
  0.00000000E+00  0.00000000E+00  0.00000000E+00
  0.00000000E+00  0.00000000E+00  0.00000000E+00
  0.00000000E+00  0.00000000E+00  0.00000000E+00
  0.00000000E+00  0.00000000E+00  0.00000000E+00
  0.00000000E+00  0.00000000E+00  0.00000000E+00
  0.00000000E+00  0.00000000E+00  0.00000000E+00
  0.00000000E+00  0.00000000E+00  0.00000000E+00
  0.00000000E+00  0.00000000E+00  0.00000000E+00
  0.00000000E+00  0.00000000E+00  0.00000000E+00
  0.00000000E+00  0.00000000E+00  0.00000000E+00
  0.00000000E+00  0.00000000E+00  0.00000000E+00
  0.00000000E+00  0.00000000E+00  0.00000000E+00
  0.00000000E+00  0.00000000E+00  0.00000000E+00
  0.00000000E+00  0.00000000E+00  0.00000000E+00
  0.00000000E+00  0.00000000E+00  0.00000000E+00
  0.00000000E+00  0.00000000E+00  0.00000000E+00
  0.00000000E+00  0.00000000E+00  0.00000000E+00
  0.00000000E+00  0.00000000E+00  0.00000000E+00
  0.00000000E+00  0.00000000E+00  0.00000000E+00
  0.00000000E+00  0.00000000E+00  0.00000000E+00
  0.00000000E+00  0.00000000E+00  0.00000000E+00
  0.00000000E+00  0.00000000E+00  0.00000000E+00
  0.00000000E+00  0.00000000E+00  0.00000000E+00
  0.00000000E+00  0.00000000E+00  0.00000000E+00
  0.00000000E+00  0.00000000E+00  0.00000000E+00
  0.00000000E+00  0.00000000E+00  0.00000000E+00
  0.00000000E+00  0.00000000E+00  0.00000000E+00
  0.00000000E+00  0.00000000E+00  0.00000000E+00
  0.00000000E+00  0.00000000E+00  0.00000000E+00
  0.00000000E+00  0.00000000E+00  0.00000000E+00
  0.00000000E+00  0.00000000E+00  0.00000000E+00
  0.00000000E+00  0.00000000E+00  0.00000000E+00
  0.00000000E+00  0.00000000E+00  0.00000000E+00
  0.00000000E+00  0.00000000E+00  0.00000000E+00
  0.00000000E+00  0.00000000E+00  0.00000000E+00
  0.00000000E+00  0.00000000E+00  0.00000000E+00
  0.00000000E+00  0.00000000E+00  0.00000000E+00
  0.00000000E+00  0.00000000E+00  0.00000000E+00
  0.00000000E+00  0.00000000E+00  0.00000000E+00
  0.00000000E+00  0.00000000E+00  0.00000000E+00
  0.00000000E+00  0.00000000E+00  0.00000000E+00
  0.00000000E+00  0.00000000E+00  0.00000000E+00
  0.00000000E+00  0.00000000E+00  0.00000000E+00
  0.00000000E+00  0.00000000E+00  0.00000000E+00
  0.00000000E+00  0.00000000E+00  0.00000000E+00
  0.00000000E+00  0.00000000E+00  0.00000000E+00
  0.00000000E+00  0.00000000E+00  0.00000000E+00
  0.00000000E+00  0.00000000E+00  0.00000000E+00
  0.00000000E+00  0.00000000E+00  0.00000000E+00
  0.00000000E+00  0.00000000E+00  0.00000000E+00
  0.00000000E+00  0.00000000E+00  0.00000000E+00
  0.00000000E+00  0.00000000E+00  0.00000000E+00
  0.00000000E+00  0.00000000E+00  0.00000000E+00
  0.00000000E+00  0.00000000E+00  0.00000000E+00
  0.00000000E+00  0.00000000E+00  0.00000000E+00
  0.00000000E+00  0.00000000E+00  0.00000000E+00
  0.00000000E+00  0.00000000E+00  0.00000000E+00
  0.00000000E+00  0.00000000E+00  0.00000000E+00
  0.00000000E+00  0.00000000E+00  0.00000000E+00
  0.00000000E+00  0.00000000E+00  0.00000000E+00
  0.00000000E+00  0.00000000E+00  0.00000000E+00
  0.00000000E+00  0.00000000E+00  0.00000000E+00
  0.00000000E+00  0.00000000E+00  0.00000000E+00
  0.00000000E+00  0.00000000E+00  0.00000000E+00
  0.00000000E+00  0.00000000E+00  0.00000000E+00
  0.00000000E+00  0.00000000E+00  0.00000000E+00
  0.00000000E+00  0.00000000E+00  0.00000000E+00
  0.00000000E+00  0.00000000E+00  0.00000000E+00
  0.00000000E+00  0.00000000E+00  0.00000000E+00
  0.00000000E+00  0.00000000E+00  0.00000000E+00
  0.00000000E+00  0.00000000E+00  0.00000000E+00
  0.00000000E+00  0.00000000E+00  0.00000000E+00
  0.00000000E+00  0.00000000E+00  0.00000000E+00
  0.00000000E+00  0.00000000E+00  0.00000000E+00
  0.00000000E+00  0.00000000E+00  0.00000000E+00
