Ga54 Cu12 Ag42 Se108                    
   1.0000000000000000     
    16.1863350243597459   -0.0244892696304286   -7.5422648466181874
    -3.4855854028612794   15.7852467106864598   -7.5285552942623566
     0.0070488195399490    0.0176290572991998   21.1606181718296718
   Ga   Cu   Ag   Se
    54    12    42   108
Direct
  0.1706643823367600  0.4970227381871695  0.0014422349859373
  0.4950677142962476  0.4983914981297630  0.9989599830800628
  0.8347790159217467  0.4993615591335967  0.0005482896624329
  0.1690208530005108  0.8332000635417245  0.9988719415112683
  0.5012546592803133  0.8348284874728691  0.9993576374332136
  0.8286190853253856  0.8349950010245664  0.9995970100989027
  0.1694813201516538  0.1694998905964127  0.9975065201006501
  0.4990278828249686  0.1675121152501475  0.0002919273509434
  0.8283760713974146  0.1628927999674019  0.9983609517870349
  0.1703621201389964  0.4985484418367108  0.3312454976142689
  0.4972697133017832  0.5004381161629325  0.3336374325249025
  0.8330686199628161  0.4990698591238711  0.3337306071198611
  0.1687725960692958  0.8296576399841982  0.3331467703397450
  0.4964561856805929  0.8308842529517477  0.3334130645834676
  0.8333360748927561  0.8336785677947987  0.3337020036873568
  0.1656136315885988  0.1698542748113283  0.3314446171917993
  0.5010989714767504  0.1694482203767862  0.3346062870308231
  0.8340716597786724  0.1676684296213082  0.3355260442932817
  0.1724241424202333  0.4974979276012306  0.6656635909801949
  0.4957928136176903  0.5048695480531009  0.6694494981726464
  0.8316024171002496  0.4971190253845350  0.6660111051076427
  0.1750050785938555  0.8329389515205250  0.6690796288625052
  0.4939348946246795  0.8337660309022041  0.6664876240513138
  0.8325557947160362  0.8340351632948355  0.6670906101075360
  0.1704781873001195  0.1683903157468976  0.6655054254207045
  0.4961425561714847  0.1656063865762079  0.6675807925628447
  0.8333982722871269  0.1683266694864756  0.6657826460679033
  0.2528619885416958  0.4195743015025712  0.1657487533397273
  0.5791730836878131  0.4179990261590874  0.1670336021487415
  0.9183453550749761  0.4169925148152771  0.1656621033218286
  0.2501323257891386  0.7436613852268152  0.1647764704075101
  0.5792269781249928  0.7469046816909852  0.1666582022273388
  0.9204348457254028  0.7487603072532352  0.1678850654797515
  0.2513891586166253  0.0869473001991992  0.1673227120640348
  0.5851245701100609  0.0850209249388385  0.1661557548406947
  0.9117626576841928  0.0816236455875270  0.1649719498205542
  0.2488833182799368  0.4170428468517215  0.4977210357457622
  0.5820946941856135  0.4159846693829721  0.5014669472591180
  0.9198917464658081  0.4122907803203120  0.5019299309652894
  0.2532957641230880  0.7498917597843899  0.4998184057996227
  0.5791450481542526  0.7530022101149640  0.5025178781114832
  0.9198125086643216  0.7500342899523744  0.5012686151222994
  0.2506732045113935  0.0828693735564556  0.4989270094540217
  0.5808322838444795  0.0820181736117434  0.4990082209406879
  0.9181162384494783  0.0892528767086134  0.5011104320621342
  0.2557834802077963  0.4156823624538717  0.8340808574554259
  0.5778550768114812  0.4160359362609611  0.8341579848612852
  0.9189147203871144  0.4170286109191963  0.8343601744995155
  0.2575883361079292  0.7489607121238748  0.8319812776526803
  0.5749117216681938  0.7523421322659871  0.8335071163124894
  0.9163303308364235  0.7489191548641898  0.8333916864472357
  0.2560120800126029  0.0873579824502215  0.8330280777158592
  0.5775562036235513  0.0820690583870700  0.8346693279466635
  0.9155657084710640  0.0844665987900584  0.8324419535219292
  0.3383833387395967  0.3344912587445918  0.9994246779175171
  0.6598694284974442  0.0007758026600015  0.9978782420163057
  0.3345933199276132  0.3334564367552773  0.3329117589575006
  0.3353501014997065  0.6687395006432411  0.6704247620696151
  0.0835889687221325  0.5817542360124293  0.1646001443693237
  0.4172705359717668  0.5800494393249664  0.1650598996104407
  0.4161690691283937  0.9195515211778442  0.5001772382529026
  0.0855234036321164  0.2480888051238210  0.4988966774820938
  0.7497042718162348  0.2499519103423609  0.5016310733139875
  0.4144282967063972  0.5845024381780206  0.8318242066015600
  0.4200095935310841  0.9175582755761482  0.8344259882811329
  0.4158413171236077  0.2502397692063383  0.8361718398269034
  0.0019551414921608  0.3333263956608690  0.0030723176444596
  0.6633581532530144  0.3345441095756598  0.9990667507581037
  0.9953671040021419  0.6639318479662961  0.9982723876819364
  0.3352347257998858  0.6641806519852835  0.0013733542674572
  0.6625811775330135  0.6679080203174266  0.0005344103578366
  0.0011221019454837  0.0018852108377914  0.0001823442976630
  0.3344530519545472  0.9983880935668736  0.9973596677408096
  0.9989387850307665  0.3311878375868531  0.3348231977519021
  0.6657386371848162  0.3333179603733072  0.3382935430486711
  0.0021484667839857  0.6582805020675764  0.3300247220075434
  0.3341335825580387  0.6678247332283149  0.3309932951839585
  0.6637339059629710  0.6689429447787347  0.3352307446498344
  0.0056646789421180  0.0039775008309846  0.3347882706520835
  0.3286814646882874  0.0003093942428407  0.3327715268685338
  0.6681760510194437  0.0036537551283828  0.3351368558985399
  0.0003912771752894  0.3326361855624924  0.6636845635148561
  0.3330021810713930  0.3367364305454288  0.6675007451030055
  0.6662269463486012  0.3308515320406400  0.6645693118081155
  0.0007470098492632  0.6664763333575152  0.6678809200570441
  0.6669713734774021  0.6676388538675155  0.6676892097297795
  0.0019705715864546  0.9964104206886120  0.6657477576965150
  0.3353328965424964  0.9987855410429489  0.6674678437520996
  0.6623905724231918  0.0001804854447727  0.6660563238754449
  0.7517994537665373  0.5840033865428254  0.1694705124910030
  0.0829892893849973  0.9109544702170993  0.1615919669128729
  0.4154811310660449  0.9172020302381654  0.1688307748965840
  0.7458429508393678  0.9134040887237447  0.1653547539874793
  0.0884345803345141  0.2550366969316613  0.1678557165966268
  0.4110541248390618  0.2532055630721288  0.1663672318402547
  0.7525550128874343  0.2493930558720194  0.1651118628236503
  0.0886109760843041  0.5864974757035526  0.5043891248244492
  0.4171791908977269  0.5777067130091069  0.5010271092282750
  0.7503967581597948  0.5821795049228129  0.4987152980488148
  0.0808147963472123  0.9175298983772535  0.4963189345042949
  0.7515814310562519  0.9193394404634745  0.5007919687819680
  0.4131517682516517  0.2513792058128814  0.4971125251260702
  0.0882131312749834  0.5831497753092307  0.8333148199196643
  0.7443143843127302  0.5823432668975954  0.8336251129683987
  0.0870058121620829  0.9157906594584730  0.8327535114880789
  0.7453241576903622  0.9154180942809873  0.8360984426616369
  0.0891396228475827  0.2514046343081802  0.8328372781212892
  0.7458810354322338  0.2504034985397041  0.8324993223020343
  0.1320162710797774  0.4646984867569586  0.0880976706497378
  0.4565242417641926  0.4587217382891069  0.0832630412703068
  0.7998026143618446  0.4576993087714882  0.0831533792368973
  0.1349934288473378  0.7857852342171583  0.0790921772938376
  0.4673583800964280  0.7941743066681823  0.0838618942846026
  0.8011156068860785  0.7890757139426938  0.0838628390841905
  0.1360567658906788  0.1278760736445506  0.0814745003345649
  0.4662606112634080  0.1280695359083452  0.0852781730830898
  0.7885516507063670  0.1144023408230481  0.0758505929718041
  0.1322200187318217  0.4586212891838457  0.4136507011932693
  0.4601177568470902  0.4493931234259065  0.4118060387581934
  0.8035442316973800  0.4554866576270271  0.4180667515495031
  0.1333409082967947  0.7890211558174727  0.4164399158027479
  0.4623436502302098  0.8006440373513115  0.4229703161717993
  0.8018058894807680  0.7917023025688650  0.4180188541417849
  0.1354955051478797  0.1340999732451564  0.4208925587737866
  0.4647846053337545  0.1243697358187674  0.4151085671707122
  0.7979313477420789  0.1346272152986643  0.4230238600411838
  0.1382481616716476  0.4561314386503881  0.7494385461290278
  0.4631304711623230  0.4675135013043032  0.7564140845478278
  0.7999426139631751  0.4586124148349171  0.7520090230649643
  0.1380338388256632  0.7891466158878160  0.7494765875273401
  0.4536894812066450  0.7932528108496015  0.7494643500427927
  0.8003427785093322  0.7935171829187055  0.7519881201457252
  0.1357276840630917  0.1232079882221555  0.7465520489409485
  0.4625533553951797  0.1334642247278239  0.7573528342357463
  0.7979760756225787  0.1255749858030413  0.7480689147130661
  0.2922289957014286  0.6196120087651167  0.0876266956772511
  0.6142917427169223  0.6220936199977416  0.0842625151096001
  0.9575645548311940  0.6211732788406010  0.0883505951865402
  0.2842551240549227  0.9606454427612050  0.0833638950080413
  0.6190647313166195  0.9613097724856914  0.0788279183656115
  0.9479174712776981  0.9577895329029573  0.0823161897685267
  0.2852743461896594  0.2972136961840874  0.0753452831044044
  0.6155902756660936  0.2934077974171601  0.0849750108673675
  0.9470493131815942  0.2877007222241019  0.0827801908329846
  0.2864982310932831  0.6243722356327126  0.4160186230472362
  0.6131944817140678  0.6268444951469974  0.4198461217312328
  0.9514954837913194  0.6235091799208945  0.4172939792754349
  0.2889176943258036  0.9547291822972710  0.4203578068325342
  0.6141511396617929  0.9563499055299616  0.4150070959670344
  0.9473777739037104  0.9616948429065246  0.4149727685035742
  0.2843698424590855  0.2961001208735468  0.4095712160726066
  0.6238925267074649  0.2900320651098696  0.4255133056352918
  0.9588259190809225  0.2871313245832567  0.4224923671661500
  0.2943143978552882  0.6228727538653729  0.7483389205453506
  0.6128783066343146  0.6297115931287536  0.7516055744213759
  0.9495670348095260  0.6224885058372678  0.7502735899806225
  0.2951627507901193  0.9580201105439414  0.7573508934659188
  0.6116608785171493  0.9583025192903918  0.7504322728361572
  0.9502494096275811  0.9585848301734288  0.7505596574597604
  0.2935142269477424  0.2890330722714722  0.7549514975706515
  0.6116875855562185  0.2922324572686605  0.7483316648008227
  0.9519766441523885  0.2922622845494018  0.7500439585743877
  0.2211195612301253  0.3825310904895787  0.2538902613865304
  0.5419862719900337  0.3842829662579703  0.2528399835868527
  0.8772499187801586  0.3848891829890420  0.2503526010959618
  0.1999739353094014  0.7067608738994409  0.2429794023649094
  0.5312293529229564  0.7081569829635370  0.2454558917393683
  0.8778920478610814  0.7174659428505450  0.2520918009992670
  0.2051759282054988  0.0506227887430981  0.2473497106714575
  0.5409638749374892  0.0519908308628132  0.2489847310775630
  0.8731590007655896  0.0486635063070509  0.2505904281680316
  0.2016994568697115  0.3737732586285816  0.5747482931310728
  0.5388596072656497  0.3872188816259268  0.5866660588353412
  0.8669539345577348  0.3751576174482878  0.5788283064980604
  0.2209745116157862  0.7154363358803337  0.5891497507793133
  0.5387389800357525  0.7171351579158056  0.5853752431719812
  0.8758220839585888  0.7175224834009200  0.5841588112101448
  0.2094716335490432  0.0489736503350784  0.5820995092267083
  0.5328300215042816  0.0450452740230602  0.5794872232924462
  0.8791526655474584  0.0531609161523292  0.5847988088372205
  0.2200686597055110  0.3815816714250104  0.9217822225387096
  0.5313539006595107  0.3761624521846727  0.9128758473707848
  0.8754415530352802  0.3821765967571338  0.9164468050040000
  0.2139165627414386  0.7180676528631338  0.9162172811847853
  0.5321417495983951  0.7095867663787985  0.9123821001475889
  0.8707126511493186  0.7174850230859349  0.9159938129643947
  0.2110776676498176  0.0524564056513483  0.9143695980485589
  0.5384593247315337  0.0421300301118208  0.9176864686744324
  0.8728719371623512  0.0490975739431789  0.9148265071553254
  0.0473252408736968  0.5311174727055459  0.2419211956087608
  0.3787888854822370  0.5371982425796702  0.2454910458382358
  0.7067449219025335  0.5337188658333858  0.2518077902676339
  0.0449732142900530  0.8670762008221047  0.2513922863222433
  0.3715355418397763  0.8644646640279063  0.2501108604903024
  0.7049846558150747  0.8643262998166250  0.2507272755061152
  0.0379701119480913  0.1989814028424277  0.2454829128116245
  0.3741182613033658  0.2086899318694790  0.2559297289464340
  0.7103436526264915  0.2027555950942173  0.2516442162056762
  0.0441212031538996  0.5314104315969672  0.5855756680581052
  0.3694586288233808  0.5413389307514151  0.5892458297535299
  0.7072407403009464  0.5330112363964545  0.5833439737090771
  0.0479422480688712  0.8644252557864647  0.5837088644298518
  0.3766891905614571  0.8699881332632771  0.5769825773439834
  0.7072076636656917  0.8673303536816093  0.5835115120925209
  0.0478674158517762  0.2036762910039869  0.5785520033968083
  0.3741797993991725  0.2010456645552239  0.5827472471045638
  0.7086767366665043  0.1997112570482713  0.5774640431966915
  0.0461475256287898  0.5322827168746258  0.9174931400872808
  0.3778233024702828  0.5364047371889882  0.9107920382521115
  0.7059186054572564  0.5315735610291696  0.9189461404466996
  0.0423555631144907  0.8657416537971869  0.9161263307419105
  0.3800886639135399  0.8697898770441412  0.9117933040002768
  0.6993470990475075  0.8731196505566956  0.9223787231838472
  0.0417345985804545  0.2010287303778711  0.9147440736618790
  0.3779631829120333  0.2110781357427669  0.9185504755786269
  0.7040754736037798  0.1979608676445679  0.9159642070166427

  0.00000000E+00  0.00000000E+00  0.00000000E+00
  0.00000000E+00  0.00000000E+00  0.00000000E+00
  0.00000000E+00  0.00000000E+00  0.00000000E+00
  0.00000000E+00  0.00000000E+00  0.00000000E+00
  0.00000000E+00  0.00000000E+00  0.00000000E+00
  0.00000000E+00  0.00000000E+00  0.00000000E+00
  0.00000000E+00  0.00000000E+00  0.00000000E+00
  0.00000000E+00  0.00000000E+00  0.00000000E+00
  0.00000000E+00  0.00000000E+00  0.00000000E+00
  0.00000000E+00  0.00000000E+00  0.00000000E+00
  0.00000000E+00  0.00000000E+00  0.00000000E+00
  0.00000000E+00  0.00000000E+00  0.00000000E+00
  0.00000000E+00  0.00000000E+00  0.00000000E+00
  0.00000000E+00  0.00000000E+00  0.00000000E+00
  0.00000000E+00  0.00000000E+00  0.00000000E+00
  0.00000000E+00  0.00000000E+00  0.00000000E+00
  0.00000000E+00  0.00000000E+00  0.00000000E+00
  0.00000000E+00  0.00000000E+00  0.00000000E+00
  0.00000000E+00  0.00000000E+00  0.00000000E+00
  0.00000000E+00  0.00000000E+00  0.00000000E+00
  0.00000000E+00  0.00000000E+00  0.00000000E+00
  0.00000000E+00  0.00000000E+00  0.00000000E+00
  0.00000000E+00  0.00000000E+00  0.00000000E+00
  0.00000000E+00  0.00000000E+00  0.00000000E+00
  0.00000000E+00  0.00000000E+00  0.00000000E+00
  0.00000000E+00  0.00000000E+00  0.00000000E+00
  0.00000000E+00  0.00000000E+00  0.00000000E+00
  0.00000000E+00  0.00000000E+00  0.00000000E+00
  0.00000000E+00  0.00000000E+00  0.00000000E+00
  0.00000000E+00  0.00000000E+00  0.00000000E+00
  0.00000000E+00  0.00000000E+00  0.00000000E+00
  0.00000000E+00  0.00000000E+00  0.00000000E+00
  0.00000000E+00  0.00000000E+00  0.00000000E+00
  0.00000000E+00  0.00000000E+00  0.00000000E+00
  0.00000000E+00  0.00000000E+00  0.00000000E+00
  0.00000000E+00  0.00000000E+00  0.00000000E+00
  0.00000000E+00  0.00000000E+00  0.00000000E+00
  0.00000000E+00  0.00000000E+00  0.00000000E+00
  0.00000000E+00  0.00000000E+00  0.00000000E+00
  0.00000000E+00  0.00000000E+00  0.00000000E+00
  0.00000000E+00  0.00000000E+00  0.00000000E+00
  0.00000000E+00  0.00000000E+00  0.00000000E+00
  0.00000000E+00  0.00000000E+00  0.00000000E+00
  0.00000000E+00  0.00000000E+00  0.00000000E+00
  0.00000000E+00  0.00000000E+00  0.00000000E+00
  0.00000000E+00  0.00000000E+00  0.00000000E+00
  0.00000000E+00  0.00000000E+00  0.00000000E+00
  0.00000000E+00  0.00000000E+00  0.00000000E+00
  0.00000000E+00  0.00000000E+00  0.00000000E+00
  0.00000000E+00  0.00000000E+00  0.00000000E+00
  0.00000000E+00  0.00000000E+00  0.00000000E+00
  0.00000000E+00  0.00000000E+00  0.00000000E+00
  0.00000000E+00  0.00000000E+00  0.00000000E+00
  0.00000000E+00  0.00000000E+00  0.00000000E+00
  0.00000000E+00  0.00000000E+00  0.00000000E+00
  0.00000000E+00  0.00000000E+00  0.00000000E+00
  0.00000000E+00  0.00000000E+00  0.00000000E+00
  0.00000000E+00  0.00000000E+00  0.00000000E+00
  0.00000000E+00  0.00000000E+00  0.00000000E+00
  0.00000000E+00  0.00000000E+00  0.00000000E+00
  0.00000000E+00  0.00000000E+00  0.00000000E+00
  0.00000000E+00  0.00000000E+00  0.00000000E+00
  0.00000000E+00  0.00000000E+00  0.00000000E+00
  0.00000000E+00  0.00000000E+00  0.00000000E+00
  0.00000000E+00  0.00000000E+00  0.00000000E+00
  0.00000000E+00  0.00000000E+00  0.00000000E+00
  0.00000000E+00  0.00000000E+00  0.00000000E+00
  0.00000000E+00  0.00000000E+00  0.00000000E+00
  0.00000000E+00  0.00000000E+00  0.00000000E+00
  0.00000000E+00  0.00000000E+00  0.00000000E+00
  0.00000000E+00  0.00000000E+00  0.00000000E+00
  0.00000000E+00  0.00000000E+00  0.00000000E+00
  0.00000000E+00  0.00000000E+00  0.00000000E+00
  0.00000000E+00  0.00000000E+00  0.00000000E+00
  0.00000000E+00  0.00000000E+00  0.00000000E+00
  0.00000000E+00  0.00000000E+00  0.00000000E+00
  0.00000000E+00  0.00000000E+00  0.00000000E+00
  0.00000000E+00  0.00000000E+00  0.00000000E+00
  0.00000000E+00  0.00000000E+00  0.00000000E+00
  0.00000000E+00  0.00000000E+00  0.00000000E+00
  0.00000000E+00  0.00000000E+00  0.00000000E+00
  0.00000000E+00  0.00000000E+00  0.00000000E+00
  0.00000000E+00  0.00000000E+00  0.00000000E+00
  0.00000000E+00  0.00000000E+00  0.00000000E+00
  0.00000000E+00  0.00000000E+00  0.00000000E+00
  0.00000000E+00  0.00000000E+00  0.00000000E+00
  0.00000000E+00  0.00000000E+00  0.00000000E+00
  0.00000000E+00  0.00000000E+00  0.00000000E+00
  0.00000000E+00  0.00000000E+00  0.00000000E+00
  0.00000000E+00  0.00000000E+00  0.00000000E+00
  0.00000000E+00  0.00000000E+00  0.00000000E+00
  0.00000000E+00  0.00000000E+00  0.00000000E+00
  0.00000000E+00  0.00000000E+00  0.00000000E+00
  0.00000000E+00  0.00000000E+00  0.00000000E+00
  0.00000000E+00  0.00000000E+00  0.00000000E+00
  0.00000000E+00  0.00000000E+00  0.00000000E+00
  0.00000000E+00  0.00000000E+00  0.00000000E+00
  0.00000000E+00  0.00000000E+00  0.00000000E+00
  0.00000000E+00  0.00000000E+00  0.00000000E+00
  0.00000000E+00  0.00000000E+00  0.00000000E+00
  0.00000000E+00  0.00000000E+00  0.00000000E+00
  0.00000000E+00  0.00000000E+00  0.00000000E+00
  0.00000000E+00  0.00000000E+00  0.00000000E+00
  0.00000000E+00  0.00000000E+00  0.00000000E+00
  0.00000000E+00  0.00000000E+00  0.00000000E+00
  0.00000000E+00  0.00000000E+00  0.00000000E+00
  0.00000000E+00  0.00000000E+00  0.00000000E+00
  0.00000000E+00  0.00000000E+00  0.00000000E+00
  0.00000000E+00  0.00000000E+00  0.00000000E+00
  0.00000000E+00  0.00000000E+00  0.00000000E+00
  0.00000000E+00  0.00000000E+00  0.00000000E+00
  0.00000000E+00  0.00000000E+00  0.00000000E+00
  0.00000000E+00  0.00000000E+00  0.00000000E+00
  0.00000000E+00  0.00000000E+00  0.00000000E+00
  0.00000000E+00  0.00000000E+00  0.00000000E+00
  0.00000000E+00  0.00000000E+00  0.00000000E+00
  0.00000000E+00  0.00000000E+00  0.00000000E+00
  0.00000000E+00  0.00000000E+00  0.00000000E+00
  0.00000000E+00  0.00000000E+00  0.00000000E+00
  0.00000000E+00  0.00000000E+00  0.00000000E+00
  0.00000000E+00  0.00000000E+00  0.00000000E+00
  0.00000000E+00  0.00000000E+00  0.00000000E+00
  0.00000000E+00  0.00000000E+00  0.00000000E+00
  0.00000000E+00  0.00000000E+00  0.00000000E+00
  0.00000000E+00  0.00000000E+00  0.00000000E+00
  0.00000000E+00  0.00000000E+00  0.00000000E+00
  0.00000000E+00  0.00000000E+00  0.00000000E+00
  0.00000000E+00  0.00000000E+00  0.00000000E+00
  0.00000000E+00  0.00000000E+00  0.00000000E+00
  0.00000000E+00  0.00000000E+00  0.00000000E+00
  0.00000000E+00  0.00000000E+00  0.00000000E+00
  0.00000000E+00  0.00000000E+00  0.00000000E+00
  0.00000000E+00  0.00000000E+00  0.00000000E+00
  0.00000000E+00  0.00000000E+00  0.00000000E+00
  0.00000000E+00  0.00000000E+00  0.00000000E+00
  0.00000000E+00  0.00000000E+00  0.00000000E+00
  0.00000000E+00  0.00000000E+00  0.00000000E+00
  0.00000000E+00  0.00000000E+00  0.00000000E+00
  0.00000000E+00  0.00000000E+00  0.00000000E+00
  0.00000000E+00  0.00000000E+00  0.00000000E+00
  0.00000000E+00  0.00000000E+00  0.00000000E+00
  0.00000000E+00  0.00000000E+00  0.00000000E+00
  0.00000000E+00  0.00000000E+00  0.00000000E+00
  0.00000000E+00  0.00000000E+00  0.00000000E+00
  0.00000000E+00  0.00000000E+00  0.00000000E+00
  0.00000000E+00  0.00000000E+00  0.00000000E+00
  0.00000000E+00  0.00000000E+00  0.00000000E+00
  0.00000000E+00  0.00000000E+00  0.00000000E+00
  0.00000000E+00  0.00000000E+00  0.00000000E+00
  0.00000000E+00  0.00000000E+00  0.00000000E+00
  0.00000000E+00  0.00000000E+00  0.00000000E+00
  0.00000000E+00  0.00000000E+00  0.00000000E+00
  0.00000000E+00  0.00000000E+00  0.00000000E+00
  0.00000000E+00  0.00000000E+00  0.00000000E+00
  0.00000000E+00  0.00000000E+00  0.00000000E+00
  0.00000000E+00  0.00000000E+00  0.00000000E+00
  0.00000000E+00  0.00000000E+00  0.00000000E+00
  0.00000000E+00  0.00000000E+00  0.00000000E+00
  0.00000000E+00  0.00000000E+00  0.00000000E+00
  0.00000000E+00  0.00000000E+00  0.00000000E+00
  0.00000000E+00  0.00000000E+00  0.00000000E+00
  0.00000000E+00  0.00000000E+00  0.00000000E+00
  0.00000000E+00  0.00000000E+00  0.00000000E+00
  0.00000000E+00  0.00000000E+00  0.00000000E+00
  0.00000000E+00  0.00000000E+00  0.00000000E+00
  0.00000000E+00  0.00000000E+00  0.00000000E+00
  0.00000000E+00  0.00000000E+00  0.00000000E+00
  0.00000000E+00  0.00000000E+00  0.00000000E+00
  0.00000000E+00  0.00000000E+00  0.00000000E+00
  0.00000000E+00  0.00000000E+00  0.00000000E+00
  0.00000000E+00  0.00000000E+00  0.00000000E+00
  0.00000000E+00  0.00000000E+00  0.00000000E+00
  0.00000000E+00  0.00000000E+00  0.00000000E+00
  0.00000000E+00  0.00000000E+00  0.00000000E+00
  0.00000000E+00  0.00000000E+00  0.00000000E+00
  0.00000000E+00  0.00000000E+00  0.00000000E+00
  0.00000000E+00  0.00000000E+00  0.00000000E+00
  0.00000000E+00  0.00000000E+00  0.00000000E+00
  0.00000000E+00  0.00000000E+00  0.00000000E+00
  0.00000000E+00  0.00000000E+00  0.00000000E+00
  0.00000000E+00  0.00000000E+00  0.00000000E+00
  0.00000000E+00  0.00000000E+00  0.00000000E+00
  0.00000000E+00  0.00000000E+00  0.00000000E+00
  0.00000000E+00  0.00000000E+00  0.00000000E+00
  0.00000000E+00  0.00000000E+00  0.00000000E+00
  0.00000000E+00  0.00000000E+00  0.00000000E+00
  0.00000000E+00  0.00000000E+00  0.00000000E+00
  0.00000000E+00  0.00000000E+00  0.00000000E+00
  0.00000000E+00  0.00000000E+00  0.00000000E+00
  0.00000000E+00  0.00000000E+00  0.00000000E+00
  0.00000000E+00  0.00000000E+00  0.00000000E+00
  0.00000000E+00  0.00000000E+00  0.00000000E+00
  0.00000000E+00  0.00000000E+00  0.00000000E+00
  0.00000000E+00  0.00000000E+00  0.00000000E+00
  0.00000000E+00  0.00000000E+00  0.00000000E+00
  0.00000000E+00  0.00000000E+00  0.00000000E+00
  0.00000000E+00  0.00000000E+00  0.00000000E+00
  0.00000000E+00  0.00000000E+00  0.00000000E+00
  0.00000000E+00  0.00000000E+00  0.00000000E+00
  0.00000000E+00  0.00000000E+00  0.00000000E+00
  0.00000000E+00  0.00000000E+00  0.00000000E+00
  0.00000000E+00  0.00000000E+00  0.00000000E+00
  0.00000000E+00  0.00000000E+00  0.00000000E+00
  0.00000000E+00  0.00000000E+00  0.00000000E+00
  0.00000000E+00  0.00000000E+00  0.00000000E+00
  0.00000000E+00  0.00000000E+00  0.00000000E+00
  0.00000000E+00  0.00000000E+00  0.00000000E+00
  0.00000000E+00  0.00000000E+00  0.00000000E+00
  0.00000000E+00  0.00000000E+00  0.00000000E+00
  0.00000000E+00  0.00000000E+00  0.00000000E+00
  0.00000000E+00  0.00000000E+00  0.00000000E+00
  0.00000000E+00  0.00000000E+00  0.00000000E+00
  0.00000000E+00  0.00000000E+00  0.00000000E+00
  0.00000000E+00  0.00000000E+00  0.00000000E+00
  0.00000000E+00  0.00000000E+00  0.00000000E+00
  0.00000000E+00  0.00000000E+00  0.00000000E+00
