In42 Ga12 Cu36 Ag18 Se108               
   1.0000000000000000     
    16.2224566297179713    0.0000814869291904   -7.2793806341523872
    -3.2438037610622281   15.8953714968862219   -7.2623007150247929
     0.0072345549234586    0.0085533028564651   21.7613705106974393
   In   Ga   Cu   Ag   Se
    42    12    36    18   108
Direct
  0.1661626640729921  0.4974516210582109  0.9989085431826012
  0.4961783392767671  0.5000235932458992  0.9984952030415855
  0.8376731941194180  0.5065618027528913  0.0011979926782999
  0.1629369497525701  0.8333449155991701  0.9975055791194265
  0.4971899962992836  0.8354019471845078  0.9948657741892006
  0.8345346827173117  0.8346151981970422  0.9950575432062934
  0.1684315565943848  0.1653014067360985  0.9989296971151376
  0.1740536121426572  0.4986697258249961  0.3307837831317002
  0.4993236579644460  0.4997682197560778  0.3349890325088012
  0.8261176430461887  0.5024173645205394  0.3330812834117793
  0.1719267516274385  0.8374205429629242  0.3360415900863600
  0.5029879493649787  0.8349459772103884  0.3369917376887344
  0.8285594881723739  0.8359298601835405  0.3333501569574651
  0.1666167673665200  0.1642261842870809  0.3339711466541289
  0.5026346079634152  0.1674502268650784  0.3335779946160073
  0.8318372394378954  0.1641631490009630  0.3330890748223538
  0.1618983946204793  0.4978625099943841  0.6648950098234394
  0.5045793786920143  0.5023634803898744  0.6693635018236037
  0.8326864465121702  0.5033352510374982  0.6698091384468583
  0.1636043235176174  0.8359000310951856  0.6685256702135760
  0.1651325551022467  0.1685266412553190  0.6673629120491782
  0.4989204188224079  0.1635601382030316  0.6648282497693430
  0.5780532280390673  0.4126761927952387  0.1643751939780316
  0.9132281612734872  0.4153517989672721  0.1623916792541422
  0.2480099162424949  0.7512276513106571  0.1637332573528028
  0.5788363237612586  0.7521275176685904  0.1658730050558503
  0.9221542692300915  0.7520831246216986  0.1671337878404131
  0.2513407393912530  0.0802938581102239  0.1639661075665515
  0.5765918103774510  0.0826450347003203  0.1631352610724548
  0.5855534702480227  0.4137583492624017  0.5032312045055036
  0.9131502424943392  0.4146867795912570  0.5023542883454652
  0.2571150494049022  0.7538302540889177  0.5033705882965052
  0.9134385955930426  0.7552893612243707  0.5057501646346623
  0.5891084347930970  0.0872083894860083  0.5061030573575280
  0.9138263249799081  0.0862175914431234  0.5018359658109759
  0.2479168788133279  0.4186533025438592  0.8349622001509900
  0.5843690712673535  0.4173425030333533  0.8318636527223902
  0.9142654115547160  0.4157100752411580  0.8304499277567459
  0.2469149747455859  0.7505906713736437  0.8330366049763285
  0.2482725733831614  0.0804053511737521  0.8331957900146065
  0.5849577594840980  0.0786750001884045  0.8357346561959176
  0.9144477210240964  0.0796800057534313  0.8313739786280721
  0.4932560510928568  0.1634392119832029  0.9987251304929359
  0.8345594893660149  0.1558182475313998  0.9998292846015531
  0.5114781277743035  0.8359943286858780  0.6693905564767491
  0.8324358153232723  0.8334927203600984  0.6694000947717385
  0.8352454853351929  0.1649374965924864  0.6666874066802819
  0.2551546257971111  0.4171748089514935  0.1686224688601357
  0.9196167524347345  0.0786170753055728  0.1636156365144856
  0.2535383762263166  0.4122013147154959  0.4982522622822358
  0.5855700240764676  0.7551097327987790  0.5038572159878001
  0.2528062641669351  0.0844245914858206  0.5009603002657812
  0.5855075409408030  0.7547451964805276  0.8307342420889725
  0.9168456219119676  0.7511914281048178  0.8318776207983021
  0.3277427248606486  0.3262064386990744  0.9970921468562679
  0.9994703769818400  0.6676544438648691  0.9955879740632199
  0.3306006126695067  0.6693757890894787  0.9947494355101014
  0.9932142697561872  0.9934445488492472  0.9949844986994094
  0.3313096181683406  0.0000708696147882  0.9974339315416714
  0.6644892091943717  0.9976690757731959  0.9942887958388695
  0.3352405763029722  0.3286277307615038  0.3329193154010568
  0.6612830920611543  0.3299532991243908  0.3331928101330632
  0.3381121466313957  0.6711389607869123  0.3343824884622251
  0.6681543995031305  0.6711146883797596  0.3372179860585618
  0.0058377704356189  0.0050267141970721  0.3331885463125843
  0.6624769650757827  0.0031310763143821  0.3365428721095327
  0.9965608980042262  0.3314028809574694  0.6678176789004482
  0.6704549589543376  0.3326435773278931  0.6655261529320597
  0.9961595553733744  0.6719094666844185  0.6740908851056986
  0.6725967848432219  0.6780734510590989  0.6751936540226353
  0.9926116771376456  0.0015259018153273  0.6699620515241236
  0.6693909311986914  0.9924501060590885  0.6636563848772568
  0.0907156178131530  0.5880601273091983  0.1678552840628811
  0.7457215650855531  0.5862565052139814  0.1702016822182060
  0.0804855598687482  0.9173210437418930  0.1649561102707082
  0.4165163005668262  0.9144576433595546  0.1620598406058917
  0.4145764934344669  0.2508556506709283  0.1649468972798758
  0.4241677994897444  0.9154603472012042  0.5038205800924374
  0.7503873181398859  0.9193050908552323  0.5057994940659398
  0.0867293980876269  0.2444541308172319  0.5010914314631307
  0.4152688452196571  0.2544882628756540  0.5001710431446824
  0.7520213234239037  0.2489753589194805  0.5040789882190353
  0.0807094009713012  0.5822678949429800  0.8323140554834865
  0.4160288441671369  0.5861535295937585  0.8343019976759649
  0.7514054261982608  0.5900943009665482  0.8303475910972438
  0.0769303434737765  0.9145547389895086  0.8318218946638112
  0.4217886063039415  0.9172950105765949  0.8351116498672013
  0.7498820775388353  0.9146044243245157  0.8316715936458792
  0.0815005085812501  0.2469910738347636  0.8266966929576540
  0.4152845134685563  0.2511087188403067  0.8401803439415119
  0.0105075929851139  0.3317154990759192  0.0051817184901708
  0.6694023146264740  0.3327352599815967  0.0011764944690924
  0.6571404753374566  0.6646480072879015  0.9929165711271395
  0.9983040847507354  0.3318285583312530  0.3357811116197524
  0.9977761056683505  0.6608719348576386  0.3279156525450446
  0.3380640754860309  0.0005773522943642  0.3385561337782477
  0.3307520620696138  0.3319570417084279  0.6636962301670479
  0.3422774709683054  0.6736441833401798  0.6726950077148786
  0.3406382044838665  0.0010325355797747  0.6685704441567637
  0.4126244919169224  0.5830591750642355  0.1651449284055317
  0.7527881917487420  0.9197335641367630  0.1680260514532819
  0.0878524995524899  0.2478183395815634  0.1646753770890541
  0.7502347098045803  0.2373121014853652  0.1605090338847930
  0.0824971851245380  0.5742320078982246  0.4996605866191643
  0.4247695095813953  0.5886983687936507  0.5046190997294460
  0.7457978518885042  0.5852414748767103  0.5001378823748936
  0.0795823076523305  0.9226233005268512  0.4993324367798095
  0.7491292496895383  0.2446956353073517  0.8314006648786503
  0.1335040777833214  0.4642910234261919  0.0953490160902675
  0.4443063459245664  0.4476806997967770  0.0751419070162029
  0.7868244943571767  0.4712653360787158  0.0877437646267012
  0.1122382865349820  0.7937313650635573  0.0820644431959394
  0.4465254685060387  0.7911252483483082  0.0776153476804211
  0.7912085438178664  0.7898625545846159  0.0791341927350686
  0.1151641908521626  0.1107295804753079  0.0730061054025626
  0.4439299213802101  0.1267797567343720  0.0776621979686709
  0.7932960973559560  0.1087767639019503  0.0765054850455371
  0.1346248653852626  0.4530652006517286  0.4176185020990175
  0.4523591921561589  0.4490296226848258  0.4146271082810031
  0.7791552867645279  0.4497042943597549  0.4122136004818699
  0.1244753650273438  0.7922931881804658  0.4177104406013470
  0.4572237646991582  0.7914089134221527  0.4227110713779041
  0.7809006301484445  0.7959444266996272  0.4199899286067037
  0.1256023033424682  0.1225005925578984  0.4229451370961215
  0.4598128726367534  0.1359918363937354  0.4250699922221060
  0.7785648292666849  0.1250740965487793  0.4170127312301659
  0.1110499665482365  0.4561613696133691  0.7493764824371425
  0.4542140344451937  0.4670620078981145  0.7549388550408480
  0.7797962907941240  0.4600299332183084  0.7503690277747594
  0.1125572012988414  0.7923766647812087  0.7508528626371529
  0.4689767079920912  0.8036809196514980  0.7540255846224042
  0.7933654144813858  0.7950926800580902  0.7533429571744179
  0.1133978301812562  0.1207531347485755  0.7475150687002525
  0.4606770517935459  0.1370989174560506  0.7610373992906005
  0.7851780767684673  0.1160498625580715  0.7380192284300904
  0.2928807318172630  0.6280912636681109  0.0740978464456816
  0.6296428993710563  0.6240619915350578  0.0865846339380099
  0.9753385522974227  0.6282554473073105  0.0838200525465140
  0.3014074025113160  0.9551358910717269  0.0795763452442557
  0.6278279533806526  0.9622180606942408  0.0771780982488153
  0.9669911626398644  0.9619520103994716  0.0849740853357019
  0.2987050142656145  0.2972264486047465  0.0872404575297452
  0.6164898321033760  0.2798165671864794  0.0775199407091804
  0.9501183562231432  0.2797289246902892  0.0771443170978259
  0.2999646220680177  0.6299370902513886  0.4131767124120387
  0.6226399560676796  0.6363822661588259  0.4168598571961510
  0.9569889844742008  0.6273472644231504  0.4196210801395566
  0.3038804373050752  0.9630392387631872  0.4314447443489726
  0.6366897179364059  0.9608665218945092  0.4212194094569668
  0.9570131115746108  0.9650375617855858  0.4083836740739315
  0.2990826537498918  0.2942899443828111  0.4178013952318338
  0.6385964009433067  0.2909791246431226  0.4204012087557132
  0.9662045575214506  0.2873469489640996  0.4250731856325984
  0.2960491933652420  0.6219485089927090  0.7529966298960673
  0.6333650049407495  0.6362182616943741  0.7540033640905719
  0.9650934339956478  0.6317617602252312  0.7567616822663865
  0.3011377026636026  0.9549172091763438  0.7543917836922418
  0.6343383864396799  0.9548076780629557  0.7475331340475151
  0.9587093220820080  0.9502206403462168  0.7460808924252760
  0.3001391721300948  0.2907580221321950  0.7571693146647931
  0.6278865372260114  0.2920315491641503  0.7429712784627185
  0.9604674937873412  0.2839567929464764  0.7456239466082337
  0.2211284499615616  0.3694353253533293  0.2484040098908409
  0.5400656476538686  0.3645263217484427  0.2510212960080906
  0.8711282811210737  0.3744716032431938  0.2489804779564011
  0.2140228420727368  0.7032376041253627  0.2520638299844009
  0.5472318334286328  0.7045797877432776  0.2546264104864022
  0.8657920199321723  0.7036056634757628  0.2444680060808793
  0.2038257702210160  0.0316340850195829  0.2453039288996095
  0.5389589783310953  0.0299946041749450  0.2480957711260103
  0.8871673123040793  0.0420385401891465  0.2500902568057484
  0.2005816950770765  0.3685597485317231  0.5714716064503733
  0.5428376535082293  0.3641680241445897  0.5864225285556088
  0.8727540832505127  0.3664026001427700  0.5873915768213607
  0.2079741037810976  0.7080634791200993  0.5840417971365994
  0.5551377250759231  0.7155625038658897  0.5909375866085185
  0.8769757518570813  0.7117888072992642  0.5951955332516192
  0.2140636988251714  0.0454226854525572  0.5817250148464126
  0.5461797187310040  0.0305475707424847  0.5857251328996966
  0.8722646451181504  0.0380572434362278  0.5877434127949783
  0.2054036323849218  0.3612328349387965  0.9147323742258777
  0.5356068306901349  0.3681841838557247  0.9119421996948347
  0.8785745234974840  0.3731254727372715  0.9193362231040396
  0.2037364527254439  0.6981825746023773  0.9143185918724583
  0.5337351863988715  0.7065256195418712  0.9020043385060390
  0.8780547508182579  0.7024023250182694  0.9098382820346345
  0.2040217885702944  0.0274241982330707  0.9139524727225847
  0.5383303601918570  0.0386426794500707  0.9225129870269058
  0.8719839399849505  0.0331628311440753  0.9175941441938349
  0.0464053507707547  0.5403341442964873  0.2411422912182104
  0.3682449317383103  0.5442409256741598  0.2519996776734246
  0.7006660924465749  0.5519124409993097  0.2494139040289340
  0.0459048570448459  0.8878128008377786  0.2521351512869430
  0.3795227713413070  0.8784572540623543  0.2449671273716660
  0.7013752188139790  0.8870181784981384  0.2538306421439387
  0.0356402357108223  0.2020252164663248  0.2446330665842495
  0.3754645470797584  0.2157757900582666  0.2481792527874020
  0.7031868329694078  0.2140931761190856  0.2535480408711805
  0.0329136263796741  0.5525280237472145  0.5912412701273340
  0.3702827356774776  0.5356189948154224  0.5796339777372310
  0.7032471299813281  0.5531090642339791  0.5918116744594926
  0.0373438507765584  0.8889455732109255  0.5897361432337860
  0.3926519227400576  0.8771083794724461  0.5877753943408592
  0.7110627716194386  0.8749338825907174  0.5844859935819144
  0.0407516521380131  0.2201118406553064  0.5846317765728770
  0.3720753805179839  0.2050503972618145  0.5732584965168144
  0.7192846033984637  0.2171461906536791  0.5912156465038976
  0.0406004084285883  0.5493236086899245  0.9151030892045995
  0.3734342770791415  0.5537638381413217  0.9157677350067317
  0.7125848581432024  0.5472836668770285  0.9092781357483659
  0.0324449113739007  0.8779438120507521  0.9110710514652069
  0.3713024717234319  0.8853294035454411  0.9129576202806717
  0.7028488805818043  0.8797214754121043  0.9106256086246844
  0.0440732733716303  0.2077808975355993  0.9078719918256226
  0.3767333073002135  0.2124339893188392  0.9205910244266704
  0.7183240821653811  0.2019401729355792  0.9232125077700033

  0.00000000E+00  0.00000000E+00  0.00000000E+00
  0.00000000E+00  0.00000000E+00  0.00000000E+00
  0.00000000E+00  0.00000000E+00  0.00000000E+00
  0.00000000E+00  0.00000000E+00  0.00000000E+00
  0.00000000E+00  0.00000000E+00  0.00000000E+00
  0.00000000E+00  0.00000000E+00  0.00000000E+00
  0.00000000E+00  0.00000000E+00  0.00000000E+00
  0.00000000E+00  0.00000000E+00  0.00000000E+00
  0.00000000E+00  0.00000000E+00  0.00000000E+00
  0.00000000E+00  0.00000000E+00  0.00000000E+00
  0.00000000E+00  0.00000000E+00  0.00000000E+00
  0.00000000E+00  0.00000000E+00  0.00000000E+00
  0.00000000E+00  0.00000000E+00  0.00000000E+00
  0.00000000E+00  0.00000000E+00  0.00000000E+00
  0.00000000E+00  0.00000000E+00  0.00000000E+00
  0.00000000E+00  0.00000000E+00  0.00000000E+00
  0.00000000E+00  0.00000000E+00  0.00000000E+00
  0.00000000E+00  0.00000000E+00  0.00000000E+00
  0.00000000E+00  0.00000000E+00  0.00000000E+00
  0.00000000E+00  0.00000000E+00  0.00000000E+00
  0.00000000E+00  0.00000000E+00  0.00000000E+00
  0.00000000E+00  0.00000000E+00  0.00000000E+00
  0.00000000E+00  0.00000000E+00  0.00000000E+00
  0.00000000E+00  0.00000000E+00  0.00000000E+00
  0.00000000E+00  0.00000000E+00  0.00000000E+00
  0.00000000E+00  0.00000000E+00  0.00000000E+00
  0.00000000E+00  0.00000000E+00  0.00000000E+00
  0.00000000E+00  0.00000000E+00  0.00000000E+00
  0.00000000E+00  0.00000000E+00  0.00000000E+00
  0.00000000E+00  0.00000000E+00  0.00000000E+00
  0.00000000E+00  0.00000000E+00  0.00000000E+00
  0.00000000E+00  0.00000000E+00  0.00000000E+00
  0.00000000E+00  0.00000000E+00  0.00000000E+00
  0.00000000E+00  0.00000000E+00  0.00000000E+00
  0.00000000E+00  0.00000000E+00  0.00000000E+00
  0.00000000E+00  0.00000000E+00  0.00000000E+00
  0.00000000E+00  0.00000000E+00  0.00000000E+00
  0.00000000E+00  0.00000000E+00  0.00000000E+00
  0.00000000E+00  0.00000000E+00  0.00000000E+00
  0.00000000E+00  0.00000000E+00  0.00000000E+00
  0.00000000E+00  0.00000000E+00  0.00000000E+00
  0.00000000E+00  0.00000000E+00  0.00000000E+00
  0.00000000E+00  0.00000000E+00  0.00000000E+00
  0.00000000E+00  0.00000000E+00  0.00000000E+00
  0.00000000E+00  0.00000000E+00  0.00000000E+00
  0.00000000E+00  0.00000000E+00  0.00000000E+00
  0.00000000E+00  0.00000000E+00  0.00000000E+00
  0.00000000E+00  0.00000000E+00  0.00000000E+00
  0.00000000E+00  0.00000000E+00  0.00000000E+00
  0.00000000E+00  0.00000000E+00  0.00000000E+00
  0.00000000E+00  0.00000000E+00  0.00000000E+00
  0.00000000E+00  0.00000000E+00  0.00000000E+00
  0.00000000E+00  0.00000000E+00  0.00000000E+00
  0.00000000E+00  0.00000000E+00  0.00000000E+00
  0.00000000E+00  0.00000000E+00  0.00000000E+00
  0.00000000E+00  0.00000000E+00  0.00000000E+00
  0.00000000E+00  0.00000000E+00  0.00000000E+00
  0.00000000E+00  0.00000000E+00  0.00000000E+00
  0.00000000E+00  0.00000000E+00  0.00000000E+00
  0.00000000E+00  0.00000000E+00  0.00000000E+00
  0.00000000E+00  0.00000000E+00  0.00000000E+00
  0.00000000E+00  0.00000000E+00  0.00000000E+00
  0.00000000E+00  0.00000000E+00  0.00000000E+00
  0.00000000E+00  0.00000000E+00  0.00000000E+00
  0.00000000E+00  0.00000000E+00  0.00000000E+00
  0.00000000E+00  0.00000000E+00  0.00000000E+00
  0.00000000E+00  0.00000000E+00  0.00000000E+00
  0.00000000E+00  0.00000000E+00  0.00000000E+00
  0.00000000E+00  0.00000000E+00  0.00000000E+00
  0.00000000E+00  0.00000000E+00  0.00000000E+00
  0.00000000E+00  0.00000000E+00  0.00000000E+00
  0.00000000E+00  0.00000000E+00  0.00000000E+00
  0.00000000E+00  0.00000000E+00  0.00000000E+00
  0.00000000E+00  0.00000000E+00  0.00000000E+00
  0.00000000E+00  0.00000000E+00  0.00000000E+00
  0.00000000E+00  0.00000000E+00  0.00000000E+00
  0.00000000E+00  0.00000000E+00  0.00000000E+00
  0.00000000E+00  0.00000000E+00  0.00000000E+00
  0.00000000E+00  0.00000000E+00  0.00000000E+00
  0.00000000E+00  0.00000000E+00  0.00000000E+00
  0.00000000E+00  0.00000000E+00  0.00000000E+00
  0.00000000E+00  0.00000000E+00  0.00000000E+00
  0.00000000E+00  0.00000000E+00  0.00000000E+00
  0.00000000E+00  0.00000000E+00  0.00000000E+00
  0.00000000E+00  0.00000000E+00  0.00000000E+00
  0.00000000E+00  0.00000000E+00  0.00000000E+00
  0.00000000E+00  0.00000000E+00  0.00000000E+00
  0.00000000E+00  0.00000000E+00  0.00000000E+00
  0.00000000E+00  0.00000000E+00  0.00000000E+00
  0.00000000E+00  0.00000000E+00  0.00000000E+00
  0.00000000E+00  0.00000000E+00  0.00000000E+00
  0.00000000E+00  0.00000000E+00  0.00000000E+00
  0.00000000E+00  0.00000000E+00  0.00000000E+00
  0.00000000E+00  0.00000000E+00  0.00000000E+00
  0.00000000E+00  0.00000000E+00  0.00000000E+00
  0.00000000E+00  0.00000000E+00  0.00000000E+00
  0.00000000E+00  0.00000000E+00  0.00000000E+00
  0.00000000E+00  0.00000000E+00  0.00000000E+00
  0.00000000E+00  0.00000000E+00  0.00000000E+00
  0.00000000E+00  0.00000000E+00  0.00000000E+00
  0.00000000E+00  0.00000000E+00  0.00000000E+00
  0.00000000E+00  0.00000000E+00  0.00000000E+00
  0.00000000E+00  0.00000000E+00  0.00000000E+00
  0.00000000E+00  0.00000000E+00  0.00000000E+00
  0.00000000E+00  0.00000000E+00  0.00000000E+00
  0.00000000E+00  0.00000000E+00  0.00000000E+00
  0.00000000E+00  0.00000000E+00  0.00000000E+00
  0.00000000E+00  0.00000000E+00  0.00000000E+00
  0.00000000E+00  0.00000000E+00  0.00000000E+00
  0.00000000E+00  0.00000000E+00  0.00000000E+00
  0.00000000E+00  0.00000000E+00  0.00000000E+00
  0.00000000E+00  0.00000000E+00  0.00000000E+00
  0.00000000E+00  0.00000000E+00  0.00000000E+00
  0.00000000E+00  0.00000000E+00  0.00000000E+00
  0.00000000E+00  0.00000000E+00  0.00000000E+00
  0.00000000E+00  0.00000000E+00  0.00000000E+00
  0.00000000E+00  0.00000000E+00  0.00000000E+00
  0.00000000E+00  0.00000000E+00  0.00000000E+00
  0.00000000E+00  0.00000000E+00  0.00000000E+00
  0.00000000E+00  0.00000000E+00  0.00000000E+00
  0.00000000E+00  0.00000000E+00  0.00000000E+00
  0.00000000E+00  0.00000000E+00  0.00000000E+00
  0.00000000E+00  0.00000000E+00  0.00000000E+00
  0.00000000E+00  0.00000000E+00  0.00000000E+00
  0.00000000E+00  0.00000000E+00  0.00000000E+00
  0.00000000E+00  0.00000000E+00  0.00000000E+00
  0.00000000E+00  0.00000000E+00  0.00000000E+00
  0.00000000E+00  0.00000000E+00  0.00000000E+00
  0.00000000E+00  0.00000000E+00  0.00000000E+00
  0.00000000E+00  0.00000000E+00  0.00000000E+00
  0.00000000E+00  0.00000000E+00  0.00000000E+00
  0.00000000E+00  0.00000000E+00  0.00000000E+00
  0.00000000E+00  0.00000000E+00  0.00000000E+00
  0.00000000E+00  0.00000000E+00  0.00000000E+00
  0.00000000E+00  0.00000000E+00  0.00000000E+00
  0.00000000E+00  0.00000000E+00  0.00000000E+00
  0.00000000E+00  0.00000000E+00  0.00000000E+00
  0.00000000E+00  0.00000000E+00  0.00000000E+00
  0.00000000E+00  0.00000000E+00  0.00000000E+00
  0.00000000E+00  0.00000000E+00  0.00000000E+00
  0.00000000E+00  0.00000000E+00  0.00000000E+00
  0.00000000E+00  0.00000000E+00  0.00000000E+00
  0.00000000E+00  0.00000000E+00  0.00000000E+00
  0.00000000E+00  0.00000000E+00  0.00000000E+00
  0.00000000E+00  0.00000000E+00  0.00000000E+00
  0.00000000E+00  0.00000000E+00  0.00000000E+00
  0.00000000E+00  0.00000000E+00  0.00000000E+00
  0.00000000E+00  0.00000000E+00  0.00000000E+00
  0.00000000E+00  0.00000000E+00  0.00000000E+00
  0.00000000E+00  0.00000000E+00  0.00000000E+00
  0.00000000E+00  0.00000000E+00  0.00000000E+00
  0.00000000E+00  0.00000000E+00  0.00000000E+00
  0.00000000E+00  0.00000000E+00  0.00000000E+00
  0.00000000E+00  0.00000000E+00  0.00000000E+00
  0.00000000E+00  0.00000000E+00  0.00000000E+00
  0.00000000E+00  0.00000000E+00  0.00000000E+00
  0.00000000E+00  0.00000000E+00  0.00000000E+00
  0.00000000E+00  0.00000000E+00  0.00000000E+00
  0.00000000E+00  0.00000000E+00  0.00000000E+00
  0.00000000E+00  0.00000000E+00  0.00000000E+00
  0.00000000E+00  0.00000000E+00  0.00000000E+00
  0.00000000E+00  0.00000000E+00  0.00000000E+00
  0.00000000E+00  0.00000000E+00  0.00000000E+00
  0.00000000E+00  0.00000000E+00  0.00000000E+00
  0.00000000E+00  0.00000000E+00  0.00000000E+00
  0.00000000E+00  0.00000000E+00  0.00000000E+00
  0.00000000E+00  0.00000000E+00  0.00000000E+00
  0.00000000E+00  0.00000000E+00  0.00000000E+00
  0.00000000E+00  0.00000000E+00  0.00000000E+00
  0.00000000E+00  0.00000000E+00  0.00000000E+00
  0.00000000E+00  0.00000000E+00  0.00000000E+00
  0.00000000E+00  0.00000000E+00  0.00000000E+00
  0.00000000E+00  0.00000000E+00  0.00000000E+00
  0.00000000E+00  0.00000000E+00  0.00000000E+00
  0.00000000E+00  0.00000000E+00  0.00000000E+00
  0.00000000E+00  0.00000000E+00  0.00000000E+00
  0.00000000E+00  0.00000000E+00  0.00000000E+00
  0.00000000E+00  0.00000000E+00  0.00000000E+00
  0.00000000E+00  0.00000000E+00  0.00000000E+00
  0.00000000E+00  0.00000000E+00  0.00000000E+00
  0.00000000E+00  0.00000000E+00  0.00000000E+00
  0.00000000E+00  0.00000000E+00  0.00000000E+00
  0.00000000E+00  0.00000000E+00  0.00000000E+00
  0.00000000E+00  0.00000000E+00  0.00000000E+00
  0.00000000E+00  0.00000000E+00  0.00000000E+00
  0.00000000E+00  0.00000000E+00  0.00000000E+00
  0.00000000E+00  0.00000000E+00  0.00000000E+00
  0.00000000E+00  0.00000000E+00  0.00000000E+00
  0.00000000E+00  0.00000000E+00  0.00000000E+00
  0.00000000E+00  0.00000000E+00  0.00000000E+00
  0.00000000E+00  0.00000000E+00  0.00000000E+00
  0.00000000E+00  0.00000000E+00  0.00000000E+00
  0.00000000E+00  0.00000000E+00  0.00000000E+00
  0.00000000E+00  0.00000000E+00  0.00000000E+00
  0.00000000E+00  0.00000000E+00  0.00000000E+00
  0.00000000E+00  0.00000000E+00  0.00000000E+00
  0.00000000E+00  0.00000000E+00  0.00000000E+00
  0.00000000E+00  0.00000000E+00  0.00000000E+00
  0.00000000E+00  0.00000000E+00  0.00000000E+00
  0.00000000E+00  0.00000000E+00  0.00000000E+00
  0.00000000E+00  0.00000000E+00  0.00000000E+00
  0.00000000E+00  0.00000000E+00  0.00000000E+00
  0.00000000E+00  0.00000000E+00  0.00000000E+00
  0.00000000E+00  0.00000000E+00  0.00000000E+00
  0.00000000E+00  0.00000000E+00  0.00000000E+00
  0.00000000E+00  0.00000000E+00  0.00000000E+00
  0.00000000E+00  0.00000000E+00  0.00000000E+00
  0.00000000E+00  0.00000000E+00  0.00000000E+00
  0.00000000E+00  0.00000000E+00  0.00000000E+00
  0.00000000E+00  0.00000000E+00  0.00000000E+00
  0.00000000E+00  0.00000000E+00  0.00000000E+00
  0.00000000E+00  0.00000000E+00  0.00000000E+00
  0.00000000E+00  0.00000000E+00  0.00000000E+00
  0.00000000E+00  0.00000000E+00  0.00000000E+00
  0.00000000E+00  0.00000000E+00  0.00000000E+00
  0.00000000E+00  0.00000000E+00  0.00000000E+00
