In48 Ga6 Cu6 Ag48 Se108                 
   1.0000000000000000     
    16.7506858309312534   -0.0002362114759888   -7.6297704176879773
    -3.4881387735241693   16.3780991533806102   -7.6424990615086674
     0.0067122676710237    0.0090168351253646   22.2038607045307046
   In   Ga   Cu   Ag   Se
    48     6     6    48   108
Direct
  0.1681427473227828  0.4981826600378341  0.0007992328410822
  0.5010250761704000  0.4958561163076709  0.0006753677492384
  0.8319220678451842  0.5002721703184179  0.9998209788566541
  0.1619448956728959  0.8362336544156861  0.9993064024828087
  0.4999271304786248  0.8353037938210619  0.0008323935916010
  0.8374985479277726  0.8350209612345409  0.9973264229367658
  0.4948888607532353  0.1657274910864999  0.9981691178363619
  0.1622238020672810  0.5003369498362957  0.3315873174361386
  0.4998053785565730  0.4983196306008182  0.3334269073271088
  0.8347993552308850  0.5019010940965316  0.3304218069177978
  0.1623531964460057  0.8302458134227138  0.3327262531059532
  0.4999344528774330  0.8327062578651407  0.3325148134604419
  0.8363971286016110  0.8274560819146544  0.3332133944401363
  0.4982058417851576  0.1672614845268470  0.3318748736758295
  0.1659738415012626  0.5046930872412148  0.6675676572914924
  0.4970994487969875  0.5028575700186195  0.6669086191154960
  0.8375997120508742  0.5072120918393281  0.6698363607269187
  0.1675704692175728  0.8352595048011722  0.6721103776722757
  0.4954671037411984  0.8311347450147863  0.6659604691291747
  0.8389743105451117  0.8306763679526767  0.6689468846295838
  0.1680514437707998  0.1646445178597418  0.6679397683480133
  0.5003703221586520  0.1660633917686027  0.6673263135983660
  0.8354220681514164  0.1658697851893649  0.6675482176207126
  0.2479650796591812  0.4119640749825706  0.1631178262638642
  0.5819249771610515  0.4157375827002951  0.1640254453117294
  0.9126203294515989  0.4159471963113859  0.1647540870791318
  0.2489689088799310  0.7504833134617854  0.1667560866965303
  0.5868820040150453  0.7472138762733422  0.1669521326797394
  0.9150493871949053  0.7462054337068764  0.1658457832568203
  0.2455241927592056  0.0863444074929589  0.1648351596127071
  0.5867961221839906  0.0840723672731443  0.1687198708284896
  0.9213635734155048  0.0868589615532542  0.1673568893736075
  0.2463734957651127  0.4173214511246996  0.4992410466124682
  0.5836827535528073  0.4173642214274622  0.5006626359099329
  0.9159443671705745  0.4187259835779926  0.4991155876209774
  0.2456605355136361  0.7470789251918220  0.4997631871229231
  0.5842409579328418  0.7490008605255838  0.5002437125864461
  0.9208096356760223  0.7478819156364906  0.5008085638980759
  0.2489036903280422  0.0841203708329274  0.4976315819990802
  0.5841597607724367  0.0833035507592825  0.4995056914850906
  0.9172893592375644  0.0828352037415527  0.4968305108640791
  0.2522510398193560  0.4168821711152901  0.8359097604114467
  0.5830139344191991  0.4161982289928829  0.8327843165078548
  0.9175320909667875  0.4158405496039776  0.8340637395236357
  0.2493355668551800  0.7505684066457832  0.8333705322994760
  0.5811219930202114  0.7503195761453796  0.8336680462968218
  0.5874587006674972  0.0827993664638456  0.8360639529964331
  0.9194083755828686  0.0835791434935942  0.8377424557916910
  0.1657147608251464  0.1644997481384181  0.9958856723021867
  0.8371142859739749  0.1656682793888251  0.0018889123030661
  0.1669620619933099  0.1691164753431451  0.3335078107288965
  0.8347012027735516  0.1685041027885887  0.3325670105388099
  0.9194352776426484  0.7554292176466788  0.8342060754769207
  0.2477887519932835  0.0869123227450999  0.8368119221037276
  0.3288909157409634  0.3258384470837470  0.9976875707843433
  0.9987205417903695  0.0021256188419727  0.9982138832483471
  0.9945267466201102  0.6634063697238375  0.3286046656067114
  0.0014142949396145  0.6686839036660928  0.6700524896630213
  0.3315852167006881  0.6664413891835608  0.6665611820841946
  0.7535305984772265  0.5838681251886726  0.1681675100342588
  0.0008159638886767  0.3290729719304650  0.0005339118710381
  0.6722817675327519  0.3320580433428475  0.0006035672173113
  0.0001809540889255  0.6671685775678711  0.9960329398433245
  0.3325432654039986  0.6668426949416641  0.0000349947788649
  0.6673799190694254  0.6672789327243080  0.0052364311249278
  0.3284842752300108  0.0040932274348648  0.9992917164894308
  0.6695512143570994  0.0050023411682076  0.0015619175742714
  0.0016752158364710  0.3305133607175605  0.3331473056473442
  0.3287511112845252  0.3332408713352351  0.3328295517572215
  0.6702268400596196  0.3331320965142694  0.3335651301256348
  0.3335776829620798  0.6642606229229457  0.3322913050125038
  0.6679334008323536  0.6624084584111642  0.3298333750754026
  0.9973629888801270  0.0040070542394517  0.3315335085992785
  0.3274817432147614  0.0010022447922822  0.3320845832280241
  0.6704293157561736  0.0009267568851996  0.3325957108873112
  0.0024167731247573  0.3353909777490856  0.6678118841051344
  0.3290653537975956  0.3341787253855273  0.6642513577572089
  0.6663192106984681  0.3345642481741322  0.6653732079216681
  0.6705418640858412  0.6715408097519244  0.6706811607565797
  0.0019582873395976  0.0007924286005192  0.6676036390313413
  0.3322081785164741  0.0019301817896249  0.6729652194955378
  0.6678553242960419  0.9974923393864756  0.6675343479252973
  0.0799439150115475  0.5830210374139213  0.1679824281162823
  0.4176867173748349  0.5761682471839649  0.1621799354067761
  0.0815844327346511  0.9220379207705491  0.1689569566785138
  0.4150736037895513  0.9152223455069475  0.1649446361022342
  0.7543058791607535  0.9183718457892169  0.1682288750952807
  0.0813633835715919  0.2407765816275855  0.1577824635386307
  0.4119658120370389  0.2524941106950891  0.1621072050982093
  0.7480680382147895  0.2469254407581332  0.1645364464010015
  0.0831552783737237  0.5900783041515183  0.5058155693303732
  0.4149894427241989  0.5828042332093730  0.5030392344666410
  0.7535471421436526  0.5879658295886685  0.5032535949974104
  0.0856452068723002  0.9122250655528674  0.4970072582664926
  0.4160441321650055  0.9159041457099235  0.5014259719822576
  0.7506094801715619  0.9159324270745657  0.5006862460555297
  0.0790479763490879  0.2455208577950643  0.4946579379105174
  0.4134485050845811  0.2493620564956487  0.4974184792635725
  0.7533826167393229  0.2492236750101000  0.4984915143395128
  0.0781365939932783  0.5876035218666260  0.8303825733909349
  0.4138476721079201  0.5853835481243266  0.8314575711065331
  0.7527113716192773  0.5856348945196928  0.8339602863683382
  0.0855510871617682  0.9165462242497000  0.8377106547639102
  0.4147290675851494  0.9131590996551537  0.8301174226069747
  0.7564438707081820  0.9211086443890650  0.8378310208973829
  0.0887990054163836  0.2512302475311259  0.8369317562499887
  0.4137644528553608  0.2473384795851175  0.8366007696977960
  0.7500331167698349  0.2485545426216902  0.8354051036784256
  0.1235514846986803  0.4582075128568093  0.0837703379011785
  0.4479096881298190  0.4432084795961941  0.0739978276410227
  0.7890171079983119  0.4665815472408283  0.0876079536860885
  0.1242483450640322  0.7949986222502403  0.0853038363573972
  0.4613926783091244  0.7903174071738590  0.0843051374900412
  0.7950247098030516  0.7931384809710664  0.0818342784123303
  0.1199004078318779  0.1168190578111989  0.0679773249826425
  0.4599256844019877  0.1252096638814564  0.0854270924085228
  0.7977359123794159  0.1283327345105221  0.0803896517625233
  0.1219704481795318  0.4617792247014521  0.4179965085369375
  0.4568225637018202  0.4579422629007723  0.4172272159777606
  0.7926773219049323  0.4623819210002864  0.4152598084103332
  0.1141766114123328  0.7781589072607957  0.4087445884334784
  0.4590334355221870  0.7910714085040595  0.4168566231019923
  0.7938729232925894  0.7892710298616663  0.4182347869305900
  0.1272741373524511  0.1270520390988921  0.4099169483560914
  0.4577205422135293  0.1241599362002503  0.4155709937439340
  0.7961709497061804  0.1274887790154722  0.4103626748038991
  0.1281492758679121  0.4621963923095507  0.7533341610118569
  0.4570907175212469  0.4580819856505514  0.7497904291727195
  0.7945483161794940  0.4596111698632797  0.7500078169089406
  0.1177601013070273  0.7855485908404987  0.7481779298405584
  0.4490594882131376  0.7821293893158199  0.7444808157586777
  0.8007987788113482  0.7931276056940817  0.7568739939339650
  0.1318488324327447  0.1233404437859917  0.7551813284223954
  0.4616950664663904  0.1254035918754681  0.7533374120252461
  0.7943226330810589  0.1238776826072225  0.7517962497779322
  0.2918528661737199  0.6250029994151305  0.0844265762316283
  0.6328838107080443  0.6184342551639119  0.0897009103875490
  0.9577646062173102  0.6246623863414271  0.0800184275775209
  0.2889229055512317  0.9599139376199020  0.0835484832578999
  0.6270298456560184  0.9591342506032561  0.0836374175024659
  0.9620578832852544  0.9638720249370039  0.0779643026156407
  0.2830973991934513  0.2846825197770571  0.0715204919546011
  0.6226656717463470  0.2887755864115107  0.0806795840718735
  0.9510079708090942  0.2859807471702212  0.0799274094998808
  0.2898511724494099  0.6236285981472705  0.4163438217816733
  0.6254622070423039  0.6238315426153420  0.4156985878760082
  0.9620867698081597  0.6272812998737507  0.4108282301193782
  0.2885392755835241  0.9552888400145392  0.4158018148011138
  0.6261802517457511  0.9578711038127494  0.4155843742474090
  0.9593972163048790  0.9559903693126159  0.4146005617517758
  0.2834680130170426  0.2875545007098452  0.4133164670888974
  0.6249307437403786  0.2918937364988992  0.4165028280444503
  0.9508412182428927  0.2871625538624372  0.4121442217982292
  0.2929187334438694  0.6296272687283633  0.7453697631770879
  0.6242438999913844  0.6261020597595390  0.7506839260938278
  0.9590512915210994  0.6400128283265616  0.7513532176372877
  0.2876994996132538  0.9679927225691074  0.7601077787383801
  0.6243024648268758  0.9544947683615845  0.7505237603764030
  0.9603557320040252  0.9594284669020396  0.7520648195428237
  0.2920302338837075  0.2913236553523930  0.7502982443709811
  0.6263989257775577  0.2911663428221019  0.7502169226589430
  0.9616402791204166  0.2910152599905089  0.7519130515945704
  0.2025297756464397  0.3732437225048244  0.2465047091264836
  0.5427484339625153  0.3742502345515462  0.2493337511397513
  0.8747208791737435  0.3730589405642490  0.2492558435443399
  0.2073281415296577  0.7074956839392570  0.2498086873884162
  0.5406330796947785  0.7058867836762843  0.2484905114582929
  0.8745844469297666  0.6963780049971362  0.2480911011811173
  0.2050824856827020  0.0521803824081530  0.2539977623978871
  0.5414417361165462  0.0415392913434545  0.2498906172483331
  0.8734996468987504  0.0520172269863153  0.2523758389357766
  0.2021338024496870  0.3758745124796690  0.5816269417956335
  0.5384566746715294  0.3766634462595704  0.5829718760954208
  0.8765945134339290  0.3792513357188483  0.5851769493695116
  0.2163694758313781  0.7098233424540439  0.5927121326717213
  0.5417800539215278  0.7082571916556617  0.5841886060027761
  0.8867649013974201  0.7059072835456348  0.5892298212214513
  0.2087237844517347  0.0407497859073729  0.5816741430639709
  0.5428671213990555  0.0411058277867014  0.5835250658314379
  0.8767116596987350  0.0418107670460586  0.5818783763942719
  0.2183243266991752  0.3737075744736487  0.9236001855201366
  0.5428678653814245  0.3713859736700869  0.9159154752155700
  0.8757665663672540  0.3748104289876935  0.9181855263400465
  0.2072036022275228  0.7111583235123007  0.9180045116057158
  0.5423392945542176  0.7091187303680542  0.9190617123219624
  0.8789366011883146  0.7117239214457740  0.9094646505592507
  0.2060555906681927  0.0497564830784398  0.9153987310120968
  0.5392977236960022  0.0410514490384415  0.9160838519566354
  0.8820524217640369  0.0480391537416907  0.9279023772662853
  0.0350990549992503  0.5464400942845273  0.2528298410423702
  0.3739993927470096  0.5373155665381333  0.2475098538778937
  0.7099324308781476  0.5411470368286331  0.2414477057743909
  0.0384480315433819  0.8738603163585807  0.2495451235394341
  0.3741056380216321  0.8760720672174500  0.2508122879412369
  0.7127007414214646  0.8720481730789231  0.2504090115105555
  0.0515429473787989  0.2082211263052756  0.2537112303794089
  0.3729172047919036  0.2098808627522715  0.2479562325652083
  0.7164595110915570  0.2064249947803987  0.2544733179154122
  0.0372741193180417  0.5509723794222481  0.5899966051667604
  0.3687392738375479  0.5482014372918442  0.5885150578824963
  0.7087411029765533  0.5436057458601766  0.5843996735603483
  0.0446413169045030  0.8746327707206660  0.5841043421651904
  0.3701338634373457  0.8749334379031097  0.5839305166276532
  0.7123223895267827  0.8717401867538683  0.5852321950577064
  0.0435041761795389  0.2075515812808248  0.5839504664804522
  0.3750845141336825  0.2084095634618279  0.5838064518163648
  0.7106641883752900  0.2081811071798612  0.5830302568118029
  0.0438618741097798  0.5397506462292512  0.9154279105016698
  0.3782591404069677  0.5420331491678141  0.9181605387964922
  0.7076924026796476  0.5428222473487807  0.9161563965055635
  0.0320792938257313  0.8791621094751747  0.9186048678575887
  0.3734892977029247  0.8771527841644584  0.9180299990564009
  0.7075136974139511  0.8752715844031229  0.9165481526368495
  0.0489021459813443  0.2056822277389401  0.9207003589671601
  0.3636693392077106  0.2073322496604177  0.9176152751763738
  0.7188501163019865  0.2034836071908543  0.9231349164079532

  0.00000000E+00  0.00000000E+00  0.00000000E+00
  0.00000000E+00  0.00000000E+00  0.00000000E+00
  0.00000000E+00  0.00000000E+00  0.00000000E+00
  0.00000000E+00  0.00000000E+00  0.00000000E+00
  0.00000000E+00  0.00000000E+00  0.00000000E+00
  0.00000000E+00  0.00000000E+00  0.00000000E+00
  0.00000000E+00  0.00000000E+00  0.00000000E+00
  0.00000000E+00  0.00000000E+00  0.00000000E+00
  0.00000000E+00  0.00000000E+00  0.00000000E+00
  0.00000000E+00  0.00000000E+00  0.00000000E+00
  0.00000000E+00  0.00000000E+00  0.00000000E+00
  0.00000000E+00  0.00000000E+00  0.00000000E+00
  0.00000000E+00  0.00000000E+00  0.00000000E+00
  0.00000000E+00  0.00000000E+00  0.00000000E+00
  0.00000000E+00  0.00000000E+00  0.00000000E+00
  0.00000000E+00  0.00000000E+00  0.00000000E+00
  0.00000000E+00  0.00000000E+00  0.00000000E+00
  0.00000000E+00  0.00000000E+00  0.00000000E+00
  0.00000000E+00  0.00000000E+00  0.00000000E+00
  0.00000000E+00  0.00000000E+00  0.00000000E+00
  0.00000000E+00  0.00000000E+00  0.00000000E+00
  0.00000000E+00  0.00000000E+00  0.00000000E+00
  0.00000000E+00  0.00000000E+00  0.00000000E+00
  0.00000000E+00  0.00000000E+00  0.00000000E+00
  0.00000000E+00  0.00000000E+00  0.00000000E+00
  0.00000000E+00  0.00000000E+00  0.00000000E+00
  0.00000000E+00  0.00000000E+00  0.00000000E+00
  0.00000000E+00  0.00000000E+00  0.00000000E+00
  0.00000000E+00  0.00000000E+00  0.00000000E+00
  0.00000000E+00  0.00000000E+00  0.00000000E+00
  0.00000000E+00  0.00000000E+00  0.00000000E+00
  0.00000000E+00  0.00000000E+00  0.00000000E+00
  0.00000000E+00  0.00000000E+00  0.00000000E+00
  0.00000000E+00  0.00000000E+00  0.00000000E+00
  0.00000000E+00  0.00000000E+00  0.00000000E+00
  0.00000000E+00  0.00000000E+00  0.00000000E+00
  0.00000000E+00  0.00000000E+00  0.00000000E+00
  0.00000000E+00  0.00000000E+00  0.00000000E+00
  0.00000000E+00  0.00000000E+00  0.00000000E+00
  0.00000000E+00  0.00000000E+00  0.00000000E+00
  0.00000000E+00  0.00000000E+00  0.00000000E+00
  0.00000000E+00  0.00000000E+00  0.00000000E+00
  0.00000000E+00  0.00000000E+00  0.00000000E+00
  0.00000000E+00  0.00000000E+00  0.00000000E+00
  0.00000000E+00  0.00000000E+00  0.00000000E+00
  0.00000000E+00  0.00000000E+00  0.00000000E+00
  0.00000000E+00  0.00000000E+00  0.00000000E+00
  0.00000000E+00  0.00000000E+00  0.00000000E+00
  0.00000000E+00  0.00000000E+00  0.00000000E+00
  0.00000000E+00  0.00000000E+00  0.00000000E+00
  0.00000000E+00  0.00000000E+00  0.00000000E+00
  0.00000000E+00  0.00000000E+00  0.00000000E+00
  0.00000000E+00  0.00000000E+00  0.00000000E+00
  0.00000000E+00  0.00000000E+00  0.00000000E+00
  0.00000000E+00  0.00000000E+00  0.00000000E+00
  0.00000000E+00  0.00000000E+00  0.00000000E+00
  0.00000000E+00  0.00000000E+00  0.00000000E+00
  0.00000000E+00  0.00000000E+00  0.00000000E+00
  0.00000000E+00  0.00000000E+00  0.00000000E+00
  0.00000000E+00  0.00000000E+00  0.00000000E+00
  0.00000000E+00  0.00000000E+00  0.00000000E+00
  0.00000000E+00  0.00000000E+00  0.00000000E+00
  0.00000000E+00  0.00000000E+00  0.00000000E+00
  0.00000000E+00  0.00000000E+00  0.00000000E+00
  0.00000000E+00  0.00000000E+00  0.00000000E+00
  0.00000000E+00  0.00000000E+00  0.00000000E+00
  0.00000000E+00  0.00000000E+00  0.00000000E+00
  0.00000000E+00  0.00000000E+00  0.00000000E+00
  0.00000000E+00  0.00000000E+00  0.00000000E+00
  0.00000000E+00  0.00000000E+00  0.00000000E+00
  0.00000000E+00  0.00000000E+00  0.00000000E+00
  0.00000000E+00  0.00000000E+00  0.00000000E+00
  0.00000000E+00  0.00000000E+00  0.00000000E+00
  0.00000000E+00  0.00000000E+00  0.00000000E+00
  0.00000000E+00  0.00000000E+00  0.00000000E+00
  0.00000000E+00  0.00000000E+00  0.00000000E+00
  0.00000000E+00  0.00000000E+00  0.00000000E+00
  0.00000000E+00  0.00000000E+00  0.00000000E+00
  0.00000000E+00  0.00000000E+00  0.00000000E+00
  0.00000000E+00  0.00000000E+00  0.00000000E+00
  0.00000000E+00  0.00000000E+00  0.00000000E+00
  0.00000000E+00  0.00000000E+00  0.00000000E+00
  0.00000000E+00  0.00000000E+00  0.00000000E+00
  0.00000000E+00  0.00000000E+00  0.00000000E+00
  0.00000000E+00  0.00000000E+00  0.00000000E+00
  0.00000000E+00  0.00000000E+00  0.00000000E+00
  0.00000000E+00  0.00000000E+00  0.00000000E+00
  0.00000000E+00  0.00000000E+00  0.00000000E+00
  0.00000000E+00  0.00000000E+00  0.00000000E+00
  0.00000000E+00  0.00000000E+00  0.00000000E+00
  0.00000000E+00  0.00000000E+00  0.00000000E+00
  0.00000000E+00  0.00000000E+00  0.00000000E+00
  0.00000000E+00  0.00000000E+00  0.00000000E+00
  0.00000000E+00  0.00000000E+00  0.00000000E+00
  0.00000000E+00  0.00000000E+00  0.00000000E+00
  0.00000000E+00  0.00000000E+00  0.00000000E+00
  0.00000000E+00  0.00000000E+00  0.00000000E+00
  0.00000000E+00  0.00000000E+00  0.00000000E+00
  0.00000000E+00  0.00000000E+00  0.00000000E+00
  0.00000000E+00  0.00000000E+00  0.00000000E+00
  0.00000000E+00  0.00000000E+00  0.00000000E+00
  0.00000000E+00  0.00000000E+00  0.00000000E+00
  0.00000000E+00  0.00000000E+00  0.00000000E+00
  0.00000000E+00  0.00000000E+00  0.00000000E+00
  0.00000000E+00  0.00000000E+00  0.00000000E+00
  0.00000000E+00  0.00000000E+00  0.00000000E+00
  0.00000000E+00  0.00000000E+00  0.00000000E+00
  0.00000000E+00  0.00000000E+00  0.00000000E+00
  0.00000000E+00  0.00000000E+00  0.00000000E+00
  0.00000000E+00  0.00000000E+00  0.00000000E+00
  0.00000000E+00  0.00000000E+00  0.00000000E+00
  0.00000000E+00  0.00000000E+00  0.00000000E+00
  0.00000000E+00  0.00000000E+00  0.00000000E+00
  0.00000000E+00  0.00000000E+00  0.00000000E+00
  0.00000000E+00  0.00000000E+00  0.00000000E+00
  0.00000000E+00  0.00000000E+00  0.00000000E+00
  0.00000000E+00  0.00000000E+00  0.00000000E+00
  0.00000000E+00  0.00000000E+00  0.00000000E+00
  0.00000000E+00  0.00000000E+00  0.00000000E+00
  0.00000000E+00  0.00000000E+00  0.00000000E+00
  0.00000000E+00  0.00000000E+00  0.00000000E+00
  0.00000000E+00  0.00000000E+00  0.00000000E+00
  0.00000000E+00  0.00000000E+00  0.00000000E+00
  0.00000000E+00  0.00000000E+00  0.00000000E+00
  0.00000000E+00  0.00000000E+00  0.00000000E+00
  0.00000000E+00  0.00000000E+00  0.00000000E+00
  0.00000000E+00  0.00000000E+00  0.00000000E+00
  0.00000000E+00  0.00000000E+00  0.00000000E+00
  0.00000000E+00  0.00000000E+00  0.00000000E+00
  0.00000000E+00  0.00000000E+00  0.00000000E+00
  0.00000000E+00  0.00000000E+00  0.00000000E+00
  0.00000000E+00  0.00000000E+00  0.00000000E+00
  0.00000000E+00  0.00000000E+00  0.00000000E+00
  0.00000000E+00  0.00000000E+00  0.00000000E+00
  0.00000000E+00  0.00000000E+00  0.00000000E+00
  0.00000000E+00  0.00000000E+00  0.00000000E+00
  0.00000000E+00  0.00000000E+00  0.00000000E+00
  0.00000000E+00  0.00000000E+00  0.00000000E+00
  0.00000000E+00  0.00000000E+00  0.00000000E+00
  0.00000000E+00  0.00000000E+00  0.00000000E+00
  0.00000000E+00  0.00000000E+00  0.00000000E+00
  0.00000000E+00  0.00000000E+00  0.00000000E+00
  0.00000000E+00  0.00000000E+00  0.00000000E+00
  0.00000000E+00  0.00000000E+00  0.00000000E+00
  0.00000000E+00  0.00000000E+00  0.00000000E+00
  0.00000000E+00  0.00000000E+00  0.00000000E+00
  0.00000000E+00  0.00000000E+00  0.00000000E+00
  0.00000000E+00  0.00000000E+00  0.00000000E+00
  0.00000000E+00  0.00000000E+00  0.00000000E+00
  0.00000000E+00  0.00000000E+00  0.00000000E+00
  0.00000000E+00  0.00000000E+00  0.00000000E+00
  0.00000000E+00  0.00000000E+00  0.00000000E+00
  0.00000000E+00  0.00000000E+00  0.00000000E+00
  0.00000000E+00  0.00000000E+00  0.00000000E+00
  0.00000000E+00  0.00000000E+00  0.00000000E+00
  0.00000000E+00  0.00000000E+00  0.00000000E+00
  0.00000000E+00  0.00000000E+00  0.00000000E+00
  0.00000000E+00  0.00000000E+00  0.00000000E+00
  0.00000000E+00  0.00000000E+00  0.00000000E+00
  0.00000000E+00  0.00000000E+00  0.00000000E+00
  0.00000000E+00  0.00000000E+00  0.00000000E+00
  0.00000000E+00  0.00000000E+00  0.00000000E+00
  0.00000000E+00  0.00000000E+00  0.00000000E+00
  0.00000000E+00  0.00000000E+00  0.00000000E+00
  0.00000000E+00  0.00000000E+00  0.00000000E+00
  0.00000000E+00  0.00000000E+00  0.00000000E+00
  0.00000000E+00  0.00000000E+00  0.00000000E+00
  0.00000000E+00  0.00000000E+00  0.00000000E+00
  0.00000000E+00  0.00000000E+00  0.00000000E+00
  0.00000000E+00  0.00000000E+00  0.00000000E+00
  0.00000000E+00  0.00000000E+00  0.00000000E+00
  0.00000000E+00  0.00000000E+00  0.00000000E+00
  0.00000000E+00  0.00000000E+00  0.00000000E+00
  0.00000000E+00  0.00000000E+00  0.00000000E+00
  0.00000000E+00  0.00000000E+00  0.00000000E+00
  0.00000000E+00  0.00000000E+00  0.00000000E+00
  0.00000000E+00  0.00000000E+00  0.00000000E+00
  0.00000000E+00  0.00000000E+00  0.00000000E+00
  0.00000000E+00  0.00000000E+00  0.00000000E+00
  0.00000000E+00  0.00000000E+00  0.00000000E+00
  0.00000000E+00  0.00000000E+00  0.00000000E+00
  0.00000000E+00  0.00000000E+00  0.00000000E+00
  0.00000000E+00  0.00000000E+00  0.00000000E+00
  0.00000000E+00  0.00000000E+00  0.00000000E+00
  0.00000000E+00  0.00000000E+00  0.00000000E+00
  0.00000000E+00  0.00000000E+00  0.00000000E+00
  0.00000000E+00  0.00000000E+00  0.00000000E+00
  0.00000000E+00  0.00000000E+00  0.00000000E+00
  0.00000000E+00  0.00000000E+00  0.00000000E+00
  0.00000000E+00  0.00000000E+00  0.00000000E+00
  0.00000000E+00  0.00000000E+00  0.00000000E+00
  0.00000000E+00  0.00000000E+00  0.00000000E+00
  0.00000000E+00  0.00000000E+00  0.00000000E+00
  0.00000000E+00  0.00000000E+00  0.00000000E+00
  0.00000000E+00  0.00000000E+00  0.00000000E+00
  0.00000000E+00  0.00000000E+00  0.00000000E+00
  0.00000000E+00  0.00000000E+00  0.00000000E+00
  0.00000000E+00  0.00000000E+00  0.00000000E+00
  0.00000000E+00  0.00000000E+00  0.00000000E+00
  0.00000000E+00  0.00000000E+00  0.00000000E+00
  0.00000000E+00  0.00000000E+00  0.00000000E+00
  0.00000000E+00  0.00000000E+00  0.00000000E+00
  0.00000000E+00  0.00000000E+00  0.00000000E+00
  0.00000000E+00  0.00000000E+00  0.00000000E+00
  0.00000000E+00  0.00000000E+00  0.00000000E+00
  0.00000000E+00  0.00000000E+00  0.00000000E+00
  0.00000000E+00  0.00000000E+00  0.00000000E+00
  0.00000000E+00  0.00000000E+00  0.00000000E+00
  0.00000000E+00  0.00000000E+00  0.00000000E+00
  0.00000000E+00  0.00000000E+00  0.00000000E+00
  0.00000000E+00  0.00000000E+00  0.00000000E+00
  0.00000000E+00  0.00000000E+00  0.00000000E+00
  0.00000000E+00  0.00000000E+00  0.00000000E+00
  0.00000000E+00  0.00000000E+00  0.00000000E+00
  0.00000000E+00  0.00000000E+00  0.00000000E+00
  0.00000000E+00  0.00000000E+00  0.00000000E+00
