In42 Ga12 Cu18 Ag36 Se108               
   1.0000000000000000     
    16.4922228296735085    0.0021975930276043   -7.4527400214088528
    -3.3683218287733001   16.1296632382899574   -7.4428306603645424
    -0.0093083681541739    0.0187532425189326   21.9809603368295186
   In   Ga   Cu   Ag   Se
    42    12    18    36   108
Direct
  0.1630947339537414  0.5008736080698313  0.9986547105226080
  0.5019731469333450  0.4997196597005953  0.9992171554983855
  0.8343024965735850  0.4967661219747512  0.0001909343469535
  0.5008955195511717  0.8302910874745493  0.9958590924070734
  0.8318711667114655  0.8303500630253282  0.9970979654599716
  0.5019485677544537  0.1687626268647122  0.9986955670549520
  0.8351901296383062  0.1694081050353091  0.9986543922930835
  0.4983782950126425  0.5007882711995890  0.3347897064056227
  0.8292612518230413  0.5008294817004924  0.3309008203220358
  0.5017151145910219  0.8357519049696194  0.3362851437696932
  0.8289355374028489  0.8328072786454612  0.3341306942395406
  0.1729816425970085  0.1661426582194139  0.3359310754487552
  0.5019878975068366  0.1662788586661321  0.3348804430910377
  0.8336739950599323  0.1680090874687252  0.3368931844861862
  0.1642129264832448  0.5026086005304080  0.6672714011947321
  0.5012726340744678  0.5009248677086049  0.6678279936883840
  0.8344061451720037  0.4969076798706169  0.6690950818399131
  0.1682806902684177  0.8358049614110499  0.6665426135585548
  0.8271007323793071  0.8406388040587629  0.6681642100166272
  0.5036569370219510  0.1625910378929660  0.6638365474068948
  0.8266824077511288  0.1624976521549684  0.6648443532824970
  0.2434793435492537  0.4106579906747427  0.1640640690664483
  0.5836148403629906  0.4146346218191610  0.1660952953470556
  0.9210905411959374  0.4170750628681432  0.1686338876824465
  0.2487043325594414  0.7530332664404682  0.1664910979584135
  0.5827223075322649  0.7472773343233214  0.1625481659223809
  0.9170008872735380  0.7456544129799028  0.1654467578744914
  0.2475141284852143  0.0829930794975340  0.1619801361969095
  0.5802571505331002  0.0866063770953716  0.1672320930697779
  0.9207690035266864  0.0864372044425181  0.1675399121359007
  0.2572015071791256  0.4190428645015345  0.5001633071952227
  0.5839516269282825  0.4145068985907514  0.5012208089917536
  0.9086858948552390  0.4146180278172125  0.4967982974410674
  0.2561328425706293  0.7499154858458752  0.5002159793416752
  0.9132806194538219  0.7555562706245311  0.5028939022526586
  0.2453962446342075  0.4164039677965476  0.8316291573389876
  0.5875545056273666  0.4140891899128505  0.8345013541648001
  0.9157419641168829  0.4137095511174493  0.8352682442591330
  0.2473124687505504  0.7509009133286000  0.8364595461294115
  0.9183219705115562  0.7489189109177516  0.8348917753757306
  0.2501853010786448  0.0860528185208764  0.8327286961804106
  0.5869793428338639  0.0837302062465213  0.8308180526842222
  0.1634594300182073  0.8263891834689971  0.9981915741312974
  0.1617130870343289  0.1686046570754911  0.0003150240991516
  0.1698112313858147  0.4984714613136347  0.3341627180298303
  0.1680205657256693  0.8359090269825344  0.3360007713636648
  0.5056167176502413  0.8365041432116200  0.6670595713427687
  0.1671123400225483  0.1625170995421428  0.6638892618775856
  0.5802229964382164  0.7553934031511389  0.5007909750886057
  0.2528818680017295  0.0822882704312349  0.5016483529901947
  0.5866352721050490  0.0843249363200087  0.5016805414624983
  0.9135612696309536  0.0811792639016247  0.5030015746300478
  0.5890259617369367  0.7512994942790101  0.8311549823865789
  0.9108816621934537  0.0852471012900438  0.8350032646463319
  0.9966545550923129  0.3276026591285515  0.9976167627299120
  0.6716800239446741  0.3371137682107985  0.0004424597131916
  0.0023313316539770  0.6636748782642741  0.9986185898416977
  0.3251982449152209  0.6624876659704810  0.9946391479676748
  0.6666614461082148  0.6662797607069919  0.9987668512042589
  0.6594797937246497  0.3322887643936383  0.3323557086520879
  0.3334718802179708  0.0003297550371428  0.6648996639356213
  0.6706231590473237  0.9991145329219862  0.6672784241238503
  0.7467348584539266  0.5806708888391299  0.1603602896862455
  0.0846029483125577  0.2532229534511998  0.1648846721821968
  0.4172805447552790  0.2524550938705872  0.1677465063911612
  0.4201495152232297  0.5870739154630300  0.5009481702742278
  0.7427710493900506  0.9193800452703798  0.5019147214984159
  0.4193129903375379  0.2456375764673382  0.5001854030397226
  0.7456081992048880  0.2478691949893204  0.4976738923836166
  0.0844747790913019  0.5867742171599133  0.8396799309471064
  0.7450170993559340  0.9177430097338828  0.8270645542484800
  0.7544421137501089  0.2450905337186597  0.8359866717740587
  0.3282508325056170  0.3304508768988157  0.0029999206747675
  0.9981280351933037  0.0040677149171984  0.9970386763168406
  0.3313082755909278  0.0033831731932068  0.0007586212397683
  0.6716735450565636  0.9927591429496729  0.9959091232791621
  0.0050498688896781  0.3296975422777919  0.3316966860243298
  0.3339405057307232  0.3325181020795753  0.3320191073544052
  0.0006473570782433  0.6698587434818393  0.3327908035109672
  0.3313386154180691  0.6642486412193733  0.3344480948241895
  0.6696330861176776  0.6646420668803330  0.3367847400135844
  0.0066736489575874  0.0015044956404964  0.3407160636908131
  0.3390048162018431  0.0031959126061167  0.3443963330181745
  0.6723060093855082  0.0069278458920081  0.3415476285594252
  0.0012911244706402  0.3315242937963845  0.6636636463048333
  0.3344241310683884  0.3225447783610491  0.6588097735242116
  0.6617539287159104  0.3243489739222554  0.6628983543832376
  0.0006317927940600  0.6695372829112145  0.6712491882157678
  0.3404517627546895  0.6727969042081412  0.6706813033294168
  0.6589230413773493  0.6752281218929710  0.6636556125267603
  0.9953377493768940  0.0038990901781233  0.6653984305306793
  0.0876092105742217  0.5830798970476323  0.1681362488193869
  0.4146391029617149  0.5862924923576287  0.1647258724670024
  0.0851570260922330  0.9122926088618044  0.1669377358505884
  0.4140101556702191  0.9077129971151621  0.1569309152507756
  0.7541106615047539  0.9169744577594514  0.1654071469269311
  0.7454972276014118  0.2496779095133945  0.1683755969782226
  0.0821403463318262  0.5807798671033879  0.4956908504419033
  0.7480209174713366  0.5826345035800742  0.5001896070188607
  0.0906418731234240  0.9252761535051306  0.5014190658651714
  0.4218539322694568  0.9214610371248781  0.5076382432470581
  0.0834686677630145  0.2489798380779717  0.5068491943565263
  0.4242546816768069  0.5879230606654957  0.8387538158351830
  0.7510655161949913  0.5855049812672064  0.8366695698383069
  0.0782540588803329  0.9245381212851100  0.8367051299937742
  0.4169587805667518  0.9132222855690628  0.8264782612336816
  0.0765937597365607  0.2413524007412562  0.8341848752553958
  0.4146274970811845  0.2490967241950415  0.8245973403881024
  0.1139138002793700  0.4474816563365422  0.0749417675798014
  0.4566699919498092  0.4573214822474938  0.0824318471477739
  0.7870216994607873  0.4587304218468660  0.0857112955366617
  0.1178696695393882  0.7838816128765558  0.0732904461878974
  0.4487798984310984  0.7761089237679428  0.0700340295828781
  0.7854615952280071  0.7831707020498300  0.0777459529597593
  0.1222849371271977  0.1356530681902441  0.0833478173384634
  0.4551980190002070  0.1358604137779338  0.0868440630086909
  0.7924514014032980  0.1266246037577119  0.0830142202328545
  0.1302585476426614  0.4588222468676975  0.4124789726971940
  0.4569073365205512  0.4659749488227760  0.4237288562150852
  0.7774394679802654  0.4508699604570339  0.4079012610348016
  0.1301653482262068  0.7950818429462529  0.4147571476410477
  0.4604801086146253  0.7909924089167859  0.4205501132183542
  0.7847544568745732  0.8027293088433325  0.4243085018457080
  0.1359623672548054  0.1258118960726904  0.4253846865666304
  0.4666608198177400  0.1300687983865245  0.4278383809125188
  0.7993448870413360  0.1332918235414340  0.4302792780382774
  0.1187120478943058  0.4682221965260354  0.7553295976107250
  0.4579750446113593  0.4542669825265406  0.7499605267549398
  0.7872045940589842  0.4540483217613911  0.7506489661422506
  0.1248706752370268  0.7988978220458520  0.7533497286168682
  0.4739856446492254  0.7935848322205317  0.7496846916758884
  0.7903887173831308  0.7992891520298784  0.7562480836945085
  0.1263474601395203  0.1267449418553781  0.7438388906029232
  0.4528836060726107  0.1154740359859545  0.7417802677984611
  0.7865118428113789  0.1220303127322993  0.7543646822406131
  0.2905684424737700  0.6280364582168332  0.0779424396242234
  0.6341633743623660  0.6244263307648907  0.0800163128324201
  0.9629127921954463  0.6240966685248068  0.0773534761459587
  0.2805998975672779  0.9473172934157859  0.0750861631064339
  0.6245089907858912  0.9605297184628441  0.0832688306754648
  0.9589532521307333  0.9570081957330174  0.0822549208780785
  0.2889902954008008  0.2807919935637244  0.0849140106749147
  0.6296450232021087  0.2953798386004678  0.0770480594330465
  0.9686789595649117  0.2921673042772355  0.0838249021949835
  0.2942258272959819  0.6142454868960670  0.4175838776416754
  0.6205520577675543  0.6344026390413049  0.4237158096744551
  0.9544798326782598  0.6286314303353819  0.4171600042638559
  0.2860295168339420  0.9574089742559693  0.4215723800855073
  0.6284483622110955  0.9641659572029653  0.4258765798247310
  0.9532032668279058  0.9644056305139657  0.4223025664879358
  0.3047431059405667  0.2884291991847121  0.4230358196781623
  0.6336753404914006  0.2914539104242735  0.4168267311186185
  0.9615141014566930  0.2928791691445554  0.4183273797271880
  0.2932470467373633  0.6277971715990276  0.7520291233074445
  0.6263160152049920  0.6307851367736106  0.7530345631940705
  0.9659732971579800  0.6206821430320133  0.7561998985098199
  0.2947984070455121  0.9633358563514491  0.7446825069753089
  0.6296127483204401  0.9537279699499877  0.7430734631646487
  0.9523750807483182  0.9706982235244581  0.7546986209787079
  0.2805172383820107  0.2862864863742161  0.7409411682533573
  0.6360560901151118  0.2854581984288771  0.7570781717933528
  0.9550432210704116  0.2874909531698506  0.7474791776563592
  0.1999633749850460  0.3732840926312306  0.2512861380190330
  0.5398437260198179  0.3673475206620083  0.2503507089145529
  0.8761688789252915  0.3743128809949567  0.2512622272182128
  0.2085348644844132  0.7180349391658751  0.2565843840584421
  0.5435616609762519  0.7095840711328663  0.2509780293803558
  0.8647161756713473  0.6998741156580408  0.2445027557970079
  0.2131344612432571  0.0394146230399244  0.2499738575493140
  0.5399934281464951  0.0368936028905722  0.2488347499048302
  0.8801193552033197  0.0443036148395350  0.2532814732332653
  0.2098666111054257  0.3780105518174182  0.5835114400887349
  0.5336486725088250  0.3663344172119594  0.5795716011172871
  0.8648768446346224  0.3645599785345013  0.5773726387373088
  0.2094791774370250  0.7080374903406437  0.5828026700684177
  0.5314872955530063  0.7138518948695562  0.5759547150192006
  0.8727328886823713  0.7130182717671758  0.5879182888536363
  0.2207564086798826  0.0500321839177786  0.5897096540328093
  0.5574179798226524  0.0415129556228848  0.5848899235904099
  0.8639363551362607  0.0346333015274283  0.5741791842748540
  0.2030518603345399  0.3717886146274765  0.9148670287759586
  0.5483973520637306  0.3699847187459824  0.9201213468445886
  0.8747426056409182  0.3622060437357817  0.9175200715801566
  0.2042813861190069  0.7038808972869290  0.9204303578120232
  0.5565957230495471  0.7109114315393086  0.9153869638409304
  0.8845304394409226  0.7044415338069925  0.9226219306145964
  0.2037627610633663  0.0527891508637524  0.9209620308784139
  0.5449616079667834  0.0414030692273855  0.9156111146142578
  0.8646064834786102  0.0357263139046893  0.9058904854421783
  0.0521363267806620  0.5417278630525857  0.2574156502425424
  0.3701961954559678  0.5377183447277147  0.2454044732221661
  0.7078536865587139  0.5451819740810890  0.2422042297653135
  0.0471796601298635  0.8722212373151734  0.2557399888996699
  0.3762758500188141  0.8789817475653479  0.2514917862770645
  0.7057757327104994  0.8779602354291569  0.2491915921507584
  0.0513168881922397  0.2098376646307472  0.2449093023090896
  0.3785761505434238  0.2091049433825347  0.2445470236650138
  0.7049517463197361  0.2163941305327270  0.2579199427828982
  0.0359626404002569  0.5418165921590159  0.5803542154925836
  0.3822148852492617  0.5484965378803395  0.5806108582894183
  0.7080341523440055  0.5441246218601492  0.5886692204929389
  0.0423701114515538  0.8791207258539941  0.5827494525011829
  0.3817521460016664  0.8811577835001216  0.5958511074636803
  0.6987196224155952  0.8794116576915769  0.5786168837528720
  0.0401541843080366  0.1945038883738306  0.5845786647159557
  0.3754638421396450  0.1981737019125660  0.5717023439742732
  0.7039167931150132  0.2034526860714010  0.5727396644359786
  0.0381535018915855  0.5481120796441559  0.9153241824821166
  0.3714526845012287  0.5468802720060850  0.9199618402026886
  0.7074989242395091  0.5474210763532454  0.9228059610217585
  0.0486634949858669  0.8723638429086620  0.9223345655771453
  0.3748831698834110  0.8768589033166307  0.9148543418544506
  0.7084688480079109  0.8695610752415988  0.9035883555581066
  0.0343074449933667  0.2049124318911097  0.9214526667220113
  0.3759674246815479  0.2122504184123528  0.9151406263858419
  0.7094276765648004  0.2195660630470044  0.9178530260468065

  0.00000000E+00  0.00000000E+00  0.00000000E+00
  0.00000000E+00  0.00000000E+00  0.00000000E+00
  0.00000000E+00  0.00000000E+00  0.00000000E+00
  0.00000000E+00  0.00000000E+00  0.00000000E+00
  0.00000000E+00  0.00000000E+00  0.00000000E+00
  0.00000000E+00  0.00000000E+00  0.00000000E+00
  0.00000000E+00  0.00000000E+00  0.00000000E+00
  0.00000000E+00  0.00000000E+00  0.00000000E+00
  0.00000000E+00  0.00000000E+00  0.00000000E+00
  0.00000000E+00  0.00000000E+00  0.00000000E+00
  0.00000000E+00  0.00000000E+00  0.00000000E+00
  0.00000000E+00  0.00000000E+00  0.00000000E+00
  0.00000000E+00  0.00000000E+00  0.00000000E+00
  0.00000000E+00  0.00000000E+00  0.00000000E+00
  0.00000000E+00  0.00000000E+00  0.00000000E+00
  0.00000000E+00  0.00000000E+00  0.00000000E+00
  0.00000000E+00  0.00000000E+00  0.00000000E+00
  0.00000000E+00  0.00000000E+00  0.00000000E+00
  0.00000000E+00  0.00000000E+00  0.00000000E+00
  0.00000000E+00  0.00000000E+00  0.00000000E+00
  0.00000000E+00  0.00000000E+00  0.00000000E+00
  0.00000000E+00  0.00000000E+00  0.00000000E+00
  0.00000000E+00  0.00000000E+00  0.00000000E+00
  0.00000000E+00  0.00000000E+00  0.00000000E+00
  0.00000000E+00  0.00000000E+00  0.00000000E+00
  0.00000000E+00  0.00000000E+00  0.00000000E+00
  0.00000000E+00  0.00000000E+00  0.00000000E+00
  0.00000000E+00  0.00000000E+00  0.00000000E+00
  0.00000000E+00  0.00000000E+00  0.00000000E+00
  0.00000000E+00  0.00000000E+00  0.00000000E+00
  0.00000000E+00  0.00000000E+00  0.00000000E+00
  0.00000000E+00  0.00000000E+00  0.00000000E+00
  0.00000000E+00  0.00000000E+00  0.00000000E+00
  0.00000000E+00  0.00000000E+00  0.00000000E+00
  0.00000000E+00  0.00000000E+00  0.00000000E+00
  0.00000000E+00  0.00000000E+00  0.00000000E+00
  0.00000000E+00  0.00000000E+00  0.00000000E+00
  0.00000000E+00  0.00000000E+00  0.00000000E+00
  0.00000000E+00  0.00000000E+00  0.00000000E+00
  0.00000000E+00  0.00000000E+00  0.00000000E+00
  0.00000000E+00  0.00000000E+00  0.00000000E+00
  0.00000000E+00  0.00000000E+00  0.00000000E+00
  0.00000000E+00  0.00000000E+00  0.00000000E+00
  0.00000000E+00  0.00000000E+00  0.00000000E+00
  0.00000000E+00  0.00000000E+00  0.00000000E+00
  0.00000000E+00  0.00000000E+00  0.00000000E+00
  0.00000000E+00  0.00000000E+00  0.00000000E+00
  0.00000000E+00  0.00000000E+00  0.00000000E+00
  0.00000000E+00  0.00000000E+00  0.00000000E+00
  0.00000000E+00  0.00000000E+00  0.00000000E+00
  0.00000000E+00  0.00000000E+00  0.00000000E+00
  0.00000000E+00  0.00000000E+00  0.00000000E+00
  0.00000000E+00  0.00000000E+00  0.00000000E+00
  0.00000000E+00  0.00000000E+00  0.00000000E+00
  0.00000000E+00  0.00000000E+00  0.00000000E+00
  0.00000000E+00  0.00000000E+00  0.00000000E+00
  0.00000000E+00  0.00000000E+00  0.00000000E+00
  0.00000000E+00  0.00000000E+00  0.00000000E+00
  0.00000000E+00  0.00000000E+00  0.00000000E+00
  0.00000000E+00  0.00000000E+00  0.00000000E+00
  0.00000000E+00  0.00000000E+00  0.00000000E+00
  0.00000000E+00  0.00000000E+00  0.00000000E+00
  0.00000000E+00  0.00000000E+00  0.00000000E+00
  0.00000000E+00  0.00000000E+00  0.00000000E+00
  0.00000000E+00  0.00000000E+00  0.00000000E+00
  0.00000000E+00  0.00000000E+00  0.00000000E+00
  0.00000000E+00  0.00000000E+00  0.00000000E+00
  0.00000000E+00  0.00000000E+00  0.00000000E+00
  0.00000000E+00  0.00000000E+00  0.00000000E+00
  0.00000000E+00  0.00000000E+00  0.00000000E+00
  0.00000000E+00  0.00000000E+00  0.00000000E+00
  0.00000000E+00  0.00000000E+00  0.00000000E+00
  0.00000000E+00  0.00000000E+00  0.00000000E+00
  0.00000000E+00  0.00000000E+00  0.00000000E+00
  0.00000000E+00  0.00000000E+00  0.00000000E+00
  0.00000000E+00  0.00000000E+00  0.00000000E+00
  0.00000000E+00  0.00000000E+00  0.00000000E+00
  0.00000000E+00  0.00000000E+00  0.00000000E+00
  0.00000000E+00  0.00000000E+00  0.00000000E+00
  0.00000000E+00  0.00000000E+00  0.00000000E+00
  0.00000000E+00  0.00000000E+00  0.00000000E+00
  0.00000000E+00  0.00000000E+00  0.00000000E+00
  0.00000000E+00  0.00000000E+00  0.00000000E+00
  0.00000000E+00  0.00000000E+00  0.00000000E+00
  0.00000000E+00  0.00000000E+00  0.00000000E+00
  0.00000000E+00  0.00000000E+00  0.00000000E+00
  0.00000000E+00  0.00000000E+00  0.00000000E+00
  0.00000000E+00  0.00000000E+00  0.00000000E+00
  0.00000000E+00  0.00000000E+00  0.00000000E+00
  0.00000000E+00  0.00000000E+00  0.00000000E+00
  0.00000000E+00  0.00000000E+00  0.00000000E+00
  0.00000000E+00  0.00000000E+00  0.00000000E+00
  0.00000000E+00  0.00000000E+00  0.00000000E+00
  0.00000000E+00  0.00000000E+00  0.00000000E+00
  0.00000000E+00  0.00000000E+00  0.00000000E+00
  0.00000000E+00  0.00000000E+00  0.00000000E+00
  0.00000000E+00  0.00000000E+00  0.00000000E+00
  0.00000000E+00  0.00000000E+00  0.00000000E+00
  0.00000000E+00  0.00000000E+00  0.00000000E+00
  0.00000000E+00  0.00000000E+00  0.00000000E+00
  0.00000000E+00  0.00000000E+00  0.00000000E+00
  0.00000000E+00  0.00000000E+00  0.00000000E+00
  0.00000000E+00  0.00000000E+00  0.00000000E+00
  0.00000000E+00  0.00000000E+00  0.00000000E+00
  0.00000000E+00  0.00000000E+00  0.00000000E+00
  0.00000000E+00  0.00000000E+00  0.00000000E+00
  0.00000000E+00  0.00000000E+00  0.00000000E+00
  0.00000000E+00  0.00000000E+00  0.00000000E+00
  0.00000000E+00  0.00000000E+00  0.00000000E+00
  0.00000000E+00  0.00000000E+00  0.00000000E+00
  0.00000000E+00  0.00000000E+00  0.00000000E+00
  0.00000000E+00  0.00000000E+00  0.00000000E+00
  0.00000000E+00  0.00000000E+00  0.00000000E+00
  0.00000000E+00  0.00000000E+00  0.00000000E+00
  0.00000000E+00  0.00000000E+00  0.00000000E+00
  0.00000000E+00  0.00000000E+00  0.00000000E+00
  0.00000000E+00  0.00000000E+00  0.00000000E+00
  0.00000000E+00  0.00000000E+00  0.00000000E+00
  0.00000000E+00  0.00000000E+00  0.00000000E+00
  0.00000000E+00  0.00000000E+00  0.00000000E+00
  0.00000000E+00  0.00000000E+00  0.00000000E+00
  0.00000000E+00  0.00000000E+00  0.00000000E+00
  0.00000000E+00  0.00000000E+00  0.00000000E+00
  0.00000000E+00  0.00000000E+00  0.00000000E+00
  0.00000000E+00  0.00000000E+00  0.00000000E+00
  0.00000000E+00  0.00000000E+00  0.00000000E+00
  0.00000000E+00  0.00000000E+00  0.00000000E+00
  0.00000000E+00  0.00000000E+00  0.00000000E+00
  0.00000000E+00  0.00000000E+00  0.00000000E+00
  0.00000000E+00  0.00000000E+00  0.00000000E+00
  0.00000000E+00  0.00000000E+00  0.00000000E+00
  0.00000000E+00  0.00000000E+00  0.00000000E+00
  0.00000000E+00  0.00000000E+00  0.00000000E+00
  0.00000000E+00  0.00000000E+00  0.00000000E+00
  0.00000000E+00  0.00000000E+00  0.00000000E+00
  0.00000000E+00  0.00000000E+00  0.00000000E+00
  0.00000000E+00  0.00000000E+00  0.00000000E+00
  0.00000000E+00  0.00000000E+00  0.00000000E+00
  0.00000000E+00  0.00000000E+00  0.00000000E+00
  0.00000000E+00  0.00000000E+00  0.00000000E+00
  0.00000000E+00  0.00000000E+00  0.00000000E+00
  0.00000000E+00  0.00000000E+00  0.00000000E+00
  0.00000000E+00  0.00000000E+00  0.00000000E+00
  0.00000000E+00  0.00000000E+00  0.00000000E+00
  0.00000000E+00  0.00000000E+00  0.00000000E+00
  0.00000000E+00  0.00000000E+00  0.00000000E+00
  0.00000000E+00  0.00000000E+00  0.00000000E+00
  0.00000000E+00  0.00000000E+00  0.00000000E+00
  0.00000000E+00  0.00000000E+00  0.00000000E+00
  0.00000000E+00  0.00000000E+00  0.00000000E+00
  0.00000000E+00  0.00000000E+00  0.00000000E+00
  0.00000000E+00  0.00000000E+00  0.00000000E+00
  0.00000000E+00  0.00000000E+00  0.00000000E+00
  0.00000000E+00  0.00000000E+00  0.00000000E+00
  0.00000000E+00  0.00000000E+00  0.00000000E+00
  0.00000000E+00  0.00000000E+00  0.00000000E+00
  0.00000000E+00  0.00000000E+00  0.00000000E+00
  0.00000000E+00  0.00000000E+00  0.00000000E+00
  0.00000000E+00  0.00000000E+00  0.00000000E+00
  0.00000000E+00  0.00000000E+00  0.00000000E+00
  0.00000000E+00  0.00000000E+00  0.00000000E+00
  0.00000000E+00  0.00000000E+00  0.00000000E+00
  0.00000000E+00  0.00000000E+00  0.00000000E+00
  0.00000000E+00  0.00000000E+00  0.00000000E+00
  0.00000000E+00  0.00000000E+00  0.00000000E+00
  0.00000000E+00  0.00000000E+00  0.00000000E+00
  0.00000000E+00  0.00000000E+00  0.00000000E+00
  0.00000000E+00  0.00000000E+00  0.00000000E+00
  0.00000000E+00  0.00000000E+00  0.00000000E+00
  0.00000000E+00  0.00000000E+00  0.00000000E+00
  0.00000000E+00  0.00000000E+00  0.00000000E+00
  0.00000000E+00  0.00000000E+00  0.00000000E+00
  0.00000000E+00  0.00000000E+00  0.00000000E+00
  0.00000000E+00  0.00000000E+00  0.00000000E+00
  0.00000000E+00  0.00000000E+00  0.00000000E+00
  0.00000000E+00  0.00000000E+00  0.00000000E+00
  0.00000000E+00  0.00000000E+00  0.00000000E+00
  0.00000000E+00  0.00000000E+00  0.00000000E+00
  0.00000000E+00  0.00000000E+00  0.00000000E+00
  0.00000000E+00  0.00000000E+00  0.00000000E+00
  0.00000000E+00  0.00000000E+00  0.00000000E+00
  0.00000000E+00  0.00000000E+00  0.00000000E+00
  0.00000000E+00  0.00000000E+00  0.00000000E+00
  0.00000000E+00  0.00000000E+00  0.00000000E+00
  0.00000000E+00  0.00000000E+00  0.00000000E+00
  0.00000000E+00  0.00000000E+00  0.00000000E+00
  0.00000000E+00  0.00000000E+00  0.00000000E+00
  0.00000000E+00  0.00000000E+00  0.00000000E+00
  0.00000000E+00  0.00000000E+00  0.00000000E+00
  0.00000000E+00  0.00000000E+00  0.00000000E+00
  0.00000000E+00  0.00000000E+00  0.00000000E+00
  0.00000000E+00  0.00000000E+00  0.00000000E+00
  0.00000000E+00  0.00000000E+00  0.00000000E+00
  0.00000000E+00  0.00000000E+00  0.00000000E+00
  0.00000000E+00  0.00000000E+00  0.00000000E+00
  0.00000000E+00  0.00000000E+00  0.00000000E+00
  0.00000000E+00  0.00000000E+00  0.00000000E+00
  0.00000000E+00  0.00000000E+00  0.00000000E+00
  0.00000000E+00  0.00000000E+00  0.00000000E+00
  0.00000000E+00  0.00000000E+00  0.00000000E+00
  0.00000000E+00  0.00000000E+00  0.00000000E+00
  0.00000000E+00  0.00000000E+00  0.00000000E+00
  0.00000000E+00  0.00000000E+00  0.00000000E+00
  0.00000000E+00  0.00000000E+00  0.00000000E+00
  0.00000000E+00  0.00000000E+00  0.00000000E+00
  0.00000000E+00  0.00000000E+00  0.00000000E+00
  0.00000000E+00  0.00000000E+00  0.00000000E+00
  0.00000000E+00  0.00000000E+00  0.00000000E+00
  0.00000000E+00  0.00000000E+00  0.00000000E+00
  0.00000000E+00  0.00000000E+00  0.00000000E+00
  0.00000000E+00  0.00000000E+00  0.00000000E+00
  0.00000000E+00  0.00000000E+00  0.00000000E+00
  0.00000000E+00  0.00000000E+00  0.00000000E+00
  0.00000000E+00  0.00000000E+00  0.00000000E+00
  0.00000000E+00  0.00000000E+00  0.00000000E+00
  0.00000000E+00  0.00000000E+00  0.00000000E+00
