In24 Ga30 Cu24 Ag30 Se108               
   1.0000000000000000     
    16.2433055621478459   -0.0487037123741236   -7.3504731062046922
    -3.2653781218709903   15.8813189751691546   -7.3577005437211245
    -0.0288441719911255   -0.0191516744967184   21.5520032726159663
   In   Ga   Cu   Ag   Se
    24    30    24    30   108
Direct
  0.1717258961988009  0.5001597789423187  0.9997350861601433
  0.8370179145954992  0.5057601161046605  0.0063921469832948
  0.4939903883453525  0.8361109465960368  0.9992440090840660
  0.8344615605090127  0.8325232154322464  0.0002920720305326
  0.4913616168794732  0.1643722797213414  0.0012960155182924
  0.1706200507853310  0.4911623826426919  0.3340379823946336
  0.5003279930829123  0.4939872897162303  0.3340195418481429
  0.8328489012703102  0.8319274478589520  0.3310775029080872
  0.1672000260247870  0.1663333107530818  0.3338087337261229
  0.1661729041194562  0.4986683759957629  0.6664866840844610
  0.8278941376086379  0.4942695632271779  0.6608569640920052
  0.1661300646564925  0.8354995059219448  0.6673426040715924
  0.4972414867584192  0.8346617537163112  0.6673911741114082
  0.2574711354131978  0.4114838223717356  0.1657768155099859
  0.2534662515799226  0.0838380284753839  0.1647615409697281
  0.2546965736576610  0.7538796862040869  0.4960275609594902
  0.5810695551448859  0.7487898942368005  0.5008608999175266
  0.2503735943970824  0.0847943866785172  0.5019366392943496
  0.9231944729631323  0.0871924357682445  0.5004266005627400
  0.5780776922468149  0.4202875696181891  0.8312942538583314
  0.9131235996896123  0.4138954680006179  0.8315229991683921
  0.9182716530744131  0.7487016014270083  0.8319898078524517
  0.5822363728431696  0.0802042186256031  0.8323302105090846
  0.9209972321168323  0.0828083243763515  0.8336094961284388
  0.4921600008677558  0.5015820856093924  0.0029931540546571
  0.1752435437001409  0.8353365466905558  0.0023093318980472
  0.1781002140570251  0.1658357980680591  0.9961167841987191
  0.8329750154592617  0.1635383162040895  0.0027647070020649
  0.8302521548820678  0.4942826747358211  0.3335085400434679
  0.1682599054327909  0.8396539121957645  0.3283281859747973
  0.4957478035551190  0.8383985167729264  0.3353237905290243
  0.4981220772511747  0.1737941159392378  0.3354080417579581
  0.8347853294161212  0.1695372779698232  0.3331390511485779
  0.4976783961658242  0.4979596974005176  0.6650191555088654
  0.8380275645068096  0.8339750723218273  0.6667921072555814
  0.1686707711464877  0.1675016844316559  0.6695335073875626
  0.4976334429302085  0.1666637157529038  0.6610994153925205
  0.8346932181082849  0.1668484834197486  0.6663500322513158
  0.5768619014260068  0.4124417014991835  0.1669461930814506
  0.9164745030556034  0.4126112131903810  0.1698180236329705
  0.2559351936249641  0.7566534760701060  0.1685355412865022
  0.5734301938056134  0.7480435762175475  0.1661844683447455
  0.9212341281782841  0.7582105603341347  0.1702527849289410
  0.5802131165832023  0.0897182577052646  0.1724316507721539
  0.9201755056850445  0.0845075462196121  0.1695806084956502
  0.2533810239243124  0.4105435552141827  0.4988298390421377
  0.5767278358759995  0.4145723901841620  0.5006987954005524
  0.9157479122678680  0.4119463143251849  0.4962338133017070
  0.9141747951925510  0.7500313544710480  0.5017809981990453
  0.5779988952706603  0.0869139011078701  0.4991497131815521
  0.2530588742168902  0.4146251515339117  0.8351373020413249
  0.2504814461399221  0.7504597024489570  0.8355455849200055
  0.5792284942905894  0.7468327893508189  0.8310367154488389
  0.2502936191037790  0.0858414982944637  0.8309680095939882
  0.3345721080880324  0.3357218933069603  0.0005479428183008
  0.3340185887409746  0.6613130995105649  0.9991722257847826
  0.3334726707718900  0.9998360032549982  0.9951619565705556
  0.9991244631803582  0.3291607135378811  0.3362450701891078
  0.3407395179612465  0.3305968784774009  0.3409638331829896
  0.6634529068428918  0.3300270290073613  0.3318984735973203
  0.0009798063630910  0.0011705640921065  0.3278619451680740
  0.3374204339068783  0.0059389344076024  0.3368873413000841
  0.6617344869632120  0.3297123916125457  0.6624833269467345
  0.9987622026955236  0.6640346561312356  0.6617988170093057
  0.0012103646433275  0.0006467492804489  0.6658308067326217
  0.3353171306968292  0.0032028898440544  0.6699466494166515
  0.4171764287370365  0.5850003193549540  0.1631085554468186
  0.0891652956578781  0.9183307884352985  0.1707928875659377
  0.4170330577124801  0.2467595444151627  0.1678297984554362
  0.4133528570169815  0.5743068129251370  0.4999735085470434
  0.4122806548644462  0.9223740229430604  0.4974257342574191
  0.0808644415362210  0.2498237754023123  0.4940554490961091
  0.4227927664560838  0.2515867593804160  0.4997343860050307
  0.4163498784604300  0.5865279476084311  0.8393035092666281
  0.7414970679599406  0.5784046343523528  0.8257669722053649
  0.4089685135180972  0.9156597524693950  0.8311322034429196
  0.7503053657894085  0.9158788549957251  0.8339945916761096
  0.0906206912253182  0.2459679458440007  0.8296639575331213
  0.0050550082839109  0.3223118084806700  0.9996431314417151
  0.6670914172434763  0.3383908136120226  0.0064442932638897
  0.0074013290762167  0.6807489450598680  0.0037370600043545
  0.6638601891715226  0.6666575660239644  0.0037732289811672
  0.9989949168112773  0.0024750239010203  0.0028432723182235
  0.6644036863306724  0.9956762614433643  0.9973250736425783
  0.9996333501981880  0.6610237769449654  0.3335165061235443
  0.3346686959717928  0.6690587338680558  0.3316417568630214
  0.6623667660603587  0.6683415244719626  0.3271110890505255
  0.6635183185900360  0.0017386398961463  0.3335019688910066
  0.0023319118219121  0.3289337401177619  0.6669405358096441
  0.3320535867189776  0.3324287911651496  0.6648471799486302
  0.3330124040547204  0.6628206841314395  0.6673614255043816
  0.6684475673502916  0.6730780119579336  0.6717719399671864
  0.6617392957948169  0.0049704082487096  0.6619871753870612
  0.0853528546448814  0.5877741796213414  0.1701524609663707
  0.7430231342347113  0.5863570637925548  0.1718309215869382
  0.4168334641580600  0.9175752078395192  0.1683823383126466
  0.7514781693099621  0.9258477383867856  0.1733758300715706
  0.0837907914218121  0.2487880627524746  0.1643551070575384
  0.7556308472214255  0.2510043545075789  0.1724886016579603
  0.0797136778634950  0.5764361896657988  0.4943084155342063
  0.7583862841547599  0.5784384535029474  0.5004712142930927
  0.0850660543342059  0.9176807414016039  0.4986324398765092
  0.7494940401067183  0.9242854307303077  0.5029643443784337
  0.7393905328109724  0.2473396494944069  0.4968520698579297
  0.0881868129301679  0.5921127083061677  0.8351170382435882
  0.0879259553622518  0.9143972994062892  0.8332490349723969
  0.4201691253329685  0.2484594738632069  0.8325760041271693
  0.7418614214385428  0.2499911364845602  0.8329335255047283
  0.1279780810743958  0.4572584144306120  0.0850447879916842
  0.4541773304998102  0.4580870610279106  0.0850056746343100
  0.8004179167703995  0.4610821799779785  0.0950353083911395
  0.1390508147857190  0.8053058768143870  0.0907258484381330
  0.4524333523946353  0.7822214945537667  0.0810392694667144
  0.7965024834952601  0.7940488201817075  0.0910321084347459
  0.1307399755883836  0.1280904407452823  0.0737173120212091
  0.4517206714241553  0.1208653405947828  0.0894149413150558
  0.7986269653037539  0.1206614443879985  0.0847684864510185
  0.1263257514266840  0.4424704542091717  0.4163986515127789
  0.4536530903529297  0.4547629834885427  0.4218292028475119
  0.7908869029195813  0.4437254313662606  0.4096295917906474
  0.1270482816222582  0.7930142502075341  0.4051361451292408
  0.4581689444701524  0.8051153309130186  0.4206456794106188
  0.7959762751317996  0.7920190930042779  0.4216481044033173
  0.1158717795454010  0.1244037655743000  0.4163884830827911
  0.4570507556031060  0.1291183734186205  0.4157960054154373
  0.7946182436263953  0.1277736615025447  0.4120890067587055
  0.1329170678176439  0.4563643134950794  0.7576448884550544
  0.4518921913281275  0.4705432893106263  0.7494440317114055
  0.7779343864047874  0.4537833852035220  0.7458039532313947
  0.1243696835708334  0.7771927373686296  0.7471938066674753
  0.4587369265301717  0.7968847539853599  0.7590376427393650
  0.7954558717190920  0.8038687121325694  0.7514937845199512
  0.1235114829462844  0.1212956235675335  0.7465001524340309
  0.4563492857212808  0.1214973993152171  0.7394339227318838
  0.7951053559334937  0.1291879024430003  0.7472925414438052
  0.2998859894871728  0.6337898043306822  0.0880793036739504
  0.6105785545097646  0.6244000672269010  0.0854973330673516
  0.9609682746435979  0.6393686718047462  0.0895703464482054
  0.2929401713267481  0.9566743485853664  0.0726091286374881
  0.6192643092710099  0.9691493919030307  0.0910257497626645
  0.9670193216230345  0.9622049965275750  0.0956801383639885
  0.3029169701731291  0.2839020374320995  0.0787133239497635
  0.6198319688312637  0.2938185909175957  0.0892215807173713
  0.9484121227776683  0.2887830215406666  0.0831967599976124
  0.3011572925741817  0.6191584214899208  0.4192923643457860
  0.6270956363286047  0.6230416856075038  0.4166986558011345
  0.9448088875586933  0.6230736730194621  0.4160529927194432
  0.2935684589658578  0.9574910112571331  0.4114745982774082
  0.6147849335410385  0.9622597779089901  0.4182286184103248
  0.9608449060975488  0.9606026707118929  0.4068263114741981
  0.3016203345282022  0.2929240725050448  0.4217820437104081
  0.6158012265773181  0.2977785416550560  0.4131955271306040
  0.9592287011540108  0.2904716043688467  0.4164366182062409
  0.2966750645599205  0.6284169681651264  0.7616201050558900
  0.6189000277474364  0.6212553755986150  0.7512335178947680
  0.9576050625600203  0.6232987013454192  0.7397987533958528
  0.2978925500172309  0.9658971994050276  0.7527809029310149
  0.6337973245311161  0.9548938287456039  0.7521570851845283
  0.9595617185594421  0.9539049587955333  0.7415735982568918
  0.2862271441654300  0.2914305695158248  0.7503851673126789
  0.6168745184652664  0.2888161443809310  0.7400889200461762
  0.9612172937613863  0.2821209294016072  0.7514733436590220
  0.2233778717912287  0.3659165207521013  0.2551817888007193
  0.5412720259305388  0.3624381501350058  0.2456301994151175
  0.8857370209973396  0.3804064485160907  0.2598579289368743
  0.2098165667302894  0.7200734339016037  0.2477929867413167
  0.5299466730818949  0.7132965104501778  0.2481979810682731
  0.8781082430863236  0.7087571265959696  0.2436301031277637
  0.2124444258463001  0.0347072017562198  0.2503751563465002
  0.5381940271603938  0.0542875216992158  0.2538237404079595
  0.8827634801001665  0.0512090462196397  0.2555694342014476
  0.2016205606915378  0.3678940223954115  0.5718938599426693
  0.5411105527674351  0.3732543098997709  0.5847385870809987
  0.8760924533775025  0.3697084554942904  0.5756606859130073
  0.2075498494317216  0.7078254902431311  0.5785291427254364
  0.5283429444350745  0.6978806711076260  0.5778388355648474
  0.8825786830030680  0.7127149429333528  0.5885916844652499
  0.2157519695153098  0.0468955243228066  0.5954319795145366
  0.5307673416680316  0.0436980323495746  0.5750380587793060
  0.8829794702051998  0.0484377118871038  0.5910608709127487
  0.2126792458308273  0.3666564949820597  0.9126549105255748
  0.5393465045177379  0.3860587376845288  0.9242419424308395
  0.8763523138215561  0.3738524118732798  0.9210423409008186
  0.2212035640976779  0.7156790440584473  0.9251653456770583
  0.5364441067603352  0.7067454366274148  0.9110052744579704
  0.8641637130183639  0.6963366161334434  0.9070094945389116
  0.2180562422743009  0.0439636131177039  0.9154679987303354
  0.5292648343701600  0.0334316428552057  0.9114974032587924
  0.8664296485552541  0.0408991200536093  0.9161285687614011
  0.0394497751124447  0.5294128833838911  0.2461869675926920
  0.3817633992317937  0.5439767141925671  0.2446437591060402
  0.7036980602506446  0.5278344727625566  0.2513581767504078
  0.0438849115287425  0.8814889840887616  0.2495445169997765
  0.3743239879259832  0.8808935268380935  0.2576019208178906
  0.6954340280362246  0.8658565911801119  0.2443339575327386
  0.0349471918772650  0.2104235475048739  0.2504557820542317
  0.3802334192815593  0.2176507735753574  0.2553582874345039
  0.7058253859265733  0.2079774365266971  0.2561020064959934
  0.0309993394205748  0.5387254396916532  0.5810029158420136
  0.3748982602982309  0.5329850149310502  0.5791043922986390
  0.6961452802458581  0.5352430661265331  0.5767783350013218
  0.0320684293420257  0.8754596750415047  0.5809184291382650
  0.3765257390310310  0.8907312649672505  0.5840106200008961
  0.7151228403974841  0.8723210611885719  0.5887594369103439
  0.0571983567807379  0.2101496014212714  0.5828874570182165
  0.3828580131058246  0.2107567404418660  0.5796856345809829
  0.7046408210718553  0.2058057252123575  0.5874796200179375
  0.0413724624512639  0.5433878752561014  0.9163216804192515
  0.3730057300503660  0.5410414595154052  0.9170579432343970
  0.7106515057678422  0.5454190557113350  0.9132585445675261
  0.0513313505436201  0.8732348615266048  0.9241786958967921
  0.3648717749837616  0.8784201551426563  0.9095282011821055
  0.7031698973983396  0.8670312549201995  0.9056947883345430
  0.0580820816567496  0.2058397573241493  0.9138324128210655
  0.3656512669212262  0.2113165927483820  0.9154802730301270
  0.7126124672806000  0.2067279656105470  0.9254447081640507

  0.00000000E+00  0.00000000E+00  0.00000000E+00
  0.00000000E+00  0.00000000E+00  0.00000000E+00
  0.00000000E+00  0.00000000E+00  0.00000000E+00
  0.00000000E+00  0.00000000E+00  0.00000000E+00
  0.00000000E+00  0.00000000E+00  0.00000000E+00
  0.00000000E+00  0.00000000E+00  0.00000000E+00
  0.00000000E+00  0.00000000E+00  0.00000000E+00
  0.00000000E+00  0.00000000E+00  0.00000000E+00
  0.00000000E+00  0.00000000E+00  0.00000000E+00
  0.00000000E+00  0.00000000E+00  0.00000000E+00
  0.00000000E+00  0.00000000E+00  0.00000000E+00
  0.00000000E+00  0.00000000E+00  0.00000000E+00
  0.00000000E+00  0.00000000E+00  0.00000000E+00
  0.00000000E+00  0.00000000E+00  0.00000000E+00
  0.00000000E+00  0.00000000E+00  0.00000000E+00
  0.00000000E+00  0.00000000E+00  0.00000000E+00
  0.00000000E+00  0.00000000E+00  0.00000000E+00
  0.00000000E+00  0.00000000E+00  0.00000000E+00
  0.00000000E+00  0.00000000E+00  0.00000000E+00
  0.00000000E+00  0.00000000E+00  0.00000000E+00
  0.00000000E+00  0.00000000E+00  0.00000000E+00
  0.00000000E+00  0.00000000E+00  0.00000000E+00
  0.00000000E+00  0.00000000E+00  0.00000000E+00
  0.00000000E+00  0.00000000E+00  0.00000000E+00
  0.00000000E+00  0.00000000E+00  0.00000000E+00
  0.00000000E+00  0.00000000E+00  0.00000000E+00
  0.00000000E+00  0.00000000E+00  0.00000000E+00
  0.00000000E+00  0.00000000E+00  0.00000000E+00
  0.00000000E+00  0.00000000E+00  0.00000000E+00
  0.00000000E+00  0.00000000E+00  0.00000000E+00
  0.00000000E+00  0.00000000E+00  0.00000000E+00
  0.00000000E+00  0.00000000E+00  0.00000000E+00
  0.00000000E+00  0.00000000E+00  0.00000000E+00
  0.00000000E+00  0.00000000E+00  0.00000000E+00
  0.00000000E+00  0.00000000E+00  0.00000000E+00
  0.00000000E+00  0.00000000E+00  0.00000000E+00
  0.00000000E+00  0.00000000E+00  0.00000000E+00
  0.00000000E+00  0.00000000E+00  0.00000000E+00
  0.00000000E+00  0.00000000E+00  0.00000000E+00
  0.00000000E+00  0.00000000E+00  0.00000000E+00
  0.00000000E+00  0.00000000E+00  0.00000000E+00
  0.00000000E+00  0.00000000E+00  0.00000000E+00
  0.00000000E+00  0.00000000E+00  0.00000000E+00
  0.00000000E+00  0.00000000E+00  0.00000000E+00
  0.00000000E+00  0.00000000E+00  0.00000000E+00
  0.00000000E+00  0.00000000E+00  0.00000000E+00
  0.00000000E+00  0.00000000E+00  0.00000000E+00
  0.00000000E+00  0.00000000E+00  0.00000000E+00
  0.00000000E+00  0.00000000E+00  0.00000000E+00
  0.00000000E+00  0.00000000E+00  0.00000000E+00
  0.00000000E+00  0.00000000E+00  0.00000000E+00
  0.00000000E+00  0.00000000E+00  0.00000000E+00
  0.00000000E+00  0.00000000E+00  0.00000000E+00
  0.00000000E+00  0.00000000E+00  0.00000000E+00
  0.00000000E+00  0.00000000E+00  0.00000000E+00
  0.00000000E+00  0.00000000E+00  0.00000000E+00
  0.00000000E+00  0.00000000E+00  0.00000000E+00
  0.00000000E+00  0.00000000E+00  0.00000000E+00
  0.00000000E+00  0.00000000E+00  0.00000000E+00
  0.00000000E+00  0.00000000E+00  0.00000000E+00
  0.00000000E+00  0.00000000E+00  0.00000000E+00
  0.00000000E+00  0.00000000E+00  0.00000000E+00
  0.00000000E+00  0.00000000E+00  0.00000000E+00
  0.00000000E+00  0.00000000E+00  0.00000000E+00
  0.00000000E+00  0.00000000E+00  0.00000000E+00
  0.00000000E+00  0.00000000E+00  0.00000000E+00
  0.00000000E+00  0.00000000E+00  0.00000000E+00
  0.00000000E+00  0.00000000E+00  0.00000000E+00
  0.00000000E+00  0.00000000E+00  0.00000000E+00
  0.00000000E+00  0.00000000E+00  0.00000000E+00
  0.00000000E+00  0.00000000E+00  0.00000000E+00
  0.00000000E+00  0.00000000E+00  0.00000000E+00
  0.00000000E+00  0.00000000E+00  0.00000000E+00
  0.00000000E+00  0.00000000E+00  0.00000000E+00
  0.00000000E+00  0.00000000E+00  0.00000000E+00
  0.00000000E+00  0.00000000E+00  0.00000000E+00
  0.00000000E+00  0.00000000E+00  0.00000000E+00
  0.00000000E+00  0.00000000E+00  0.00000000E+00
  0.00000000E+00  0.00000000E+00  0.00000000E+00
  0.00000000E+00  0.00000000E+00  0.00000000E+00
  0.00000000E+00  0.00000000E+00  0.00000000E+00
  0.00000000E+00  0.00000000E+00  0.00000000E+00
  0.00000000E+00  0.00000000E+00  0.00000000E+00
  0.00000000E+00  0.00000000E+00  0.00000000E+00
  0.00000000E+00  0.00000000E+00  0.00000000E+00
  0.00000000E+00  0.00000000E+00  0.00000000E+00
  0.00000000E+00  0.00000000E+00  0.00000000E+00
  0.00000000E+00  0.00000000E+00  0.00000000E+00
  0.00000000E+00  0.00000000E+00  0.00000000E+00
  0.00000000E+00  0.00000000E+00  0.00000000E+00
  0.00000000E+00  0.00000000E+00  0.00000000E+00
  0.00000000E+00  0.00000000E+00  0.00000000E+00
  0.00000000E+00  0.00000000E+00  0.00000000E+00
  0.00000000E+00  0.00000000E+00  0.00000000E+00
  0.00000000E+00  0.00000000E+00  0.00000000E+00
  0.00000000E+00  0.00000000E+00  0.00000000E+00
  0.00000000E+00  0.00000000E+00  0.00000000E+00
  0.00000000E+00  0.00000000E+00  0.00000000E+00
  0.00000000E+00  0.00000000E+00  0.00000000E+00
  0.00000000E+00  0.00000000E+00  0.00000000E+00
  0.00000000E+00  0.00000000E+00  0.00000000E+00
  0.00000000E+00  0.00000000E+00  0.00000000E+00
  0.00000000E+00  0.00000000E+00  0.00000000E+00
  0.00000000E+00  0.00000000E+00  0.00000000E+00
  0.00000000E+00  0.00000000E+00  0.00000000E+00
  0.00000000E+00  0.00000000E+00  0.00000000E+00
  0.00000000E+00  0.00000000E+00  0.00000000E+00
  0.00000000E+00  0.00000000E+00  0.00000000E+00
  0.00000000E+00  0.00000000E+00  0.00000000E+00
  0.00000000E+00  0.00000000E+00  0.00000000E+00
  0.00000000E+00  0.00000000E+00  0.00000000E+00
  0.00000000E+00  0.00000000E+00  0.00000000E+00
  0.00000000E+00  0.00000000E+00  0.00000000E+00
  0.00000000E+00  0.00000000E+00  0.00000000E+00
  0.00000000E+00  0.00000000E+00  0.00000000E+00
  0.00000000E+00  0.00000000E+00  0.00000000E+00
  0.00000000E+00  0.00000000E+00  0.00000000E+00
  0.00000000E+00  0.00000000E+00  0.00000000E+00
  0.00000000E+00  0.00000000E+00  0.00000000E+00
  0.00000000E+00  0.00000000E+00  0.00000000E+00
  0.00000000E+00  0.00000000E+00  0.00000000E+00
  0.00000000E+00  0.00000000E+00  0.00000000E+00
  0.00000000E+00  0.00000000E+00  0.00000000E+00
  0.00000000E+00  0.00000000E+00  0.00000000E+00
  0.00000000E+00  0.00000000E+00  0.00000000E+00
  0.00000000E+00  0.00000000E+00  0.00000000E+00
  0.00000000E+00  0.00000000E+00  0.00000000E+00
  0.00000000E+00  0.00000000E+00  0.00000000E+00
  0.00000000E+00  0.00000000E+00  0.00000000E+00
  0.00000000E+00  0.00000000E+00  0.00000000E+00
  0.00000000E+00  0.00000000E+00  0.00000000E+00
  0.00000000E+00  0.00000000E+00  0.00000000E+00
  0.00000000E+00  0.00000000E+00  0.00000000E+00
  0.00000000E+00  0.00000000E+00  0.00000000E+00
  0.00000000E+00  0.00000000E+00  0.00000000E+00
  0.00000000E+00  0.00000000E+00  0.00000000E+00
  0.00000000E+00  0.00000000E+00  0.00000000E+00
  0.00000000E+00  0.00000000E+00  0.00000000E+00
  0.00000000E+00  0.00000000E+00  0.00000000E+00
  0.00000000E+00  0.00000000E+00  0.00000000E+00
  0.00000000E+00  0.00000000E+00  0.00000000E+00
  0.00000000E+00  0.00000000E+00  0.00000000E+00
  0.00000000E+00  0.00000000E+00  0.00000000E+00
  0.00000000E+00  0.00000000E+00  0.00000000E+00
  0.00000000E+00  0.00000000E+00  0.00000000E+00
  0.00000000E+00  0.00000000E+00  0.00000000E+00
  0.00000000E+00  0.00000000E+00  0.00000000E+00
  0.00000000E+00  0.00000000E+00  0.00000000E+00
  0.00000000E+00  0.00000000E+00  0.00000000E+00
  0.00000000E+00  0.00000000E+00  0.00000000E+00
  0.00000000E+00  0.00000000E+00  0.00000000E+00
  0.00000000E+00  0.00000000E+00  0.00000000E+00
  0.00000000E+00  0.00000000E+00  0.00000000E+00
  0.00000000E+00  0.00000000E+00  0.00000000E+00
  0.00000000E+00  0.00000000E+00  0.00000000E+00
  0.00000000E+00  0.00000000E+00  0.00000000E+00
  0.00000000E+00  0.00000000E+00  0.00000000E+00
  0.00000000E+00  0.00000000E+00  0.00000000E+00
  0.00000000E+00  0.00000000E+00  0.00000000E+00
  0.00000000E+00  0.00000000E+00  0.00000000E+00
  0.00000000E+00  0.00000000E+00  0.00000000E+00
  0.00000000E+00  0.00000000E+00  0.00000000E+00
  0.00000000E+00  0.00000000E+00  0.00000000E+00
  0.00000000E+00  0.00000000E+00  0.00000000E+00
  0.00000000E+00  0.00000000E+00  0.00000000E+00
  0.00000000E+00  0.00000000E+00  0.00000000E+00
  0.00000000E+00  0.00000000E+00  0.00000000E+00
  0.00000000E+00  0.00000000E+00  0.00000000E+00
  0.00000000E+00  0.00000000E+00  0.00000000E+00
  0.00000000E+00  0.00000000E+00  0.00000000E+00
  0.00000000E+00  0.00000000E+00  0.00000000E+00
  0.00000000E+00  0.00000000E+00  0.00000000E+00
  0.00000000E+00  0.00000000E+00  0.00000000E+00
  0.00000000E+00  0.00000000E+00  0.00000000E+00
  0.00000000E+00  0.00000000E+00  0.00000000E+00
  0.00000000E+00  0.00000000E+00  0.00000000E+00
  0.00000000E+00  0.00000000E+00  0.00000000E+00
  0.00000000E+00  0.00000000E+00  0.00000000E+00
  0.00000000E+00  0.00000000E+00  0.00000000E+00
  0.00000000E+00  0.00000000E+00  0.00000000E+00
  0.00000000E+00  0.00000000E+00  0.00000000E+00
  0.00000000E+00  0.00000000E+00  0.00000000E+00
  0.00000000E+00  0.00000000E+00  0.00000000E+00
  0.00000000E+00  0.00000000E+00  0.00000000E+00
  0.00000000E+00  0.00000000E+00  0.00000000E+00
  0.00000000E+00  0.00000000E+00  0.00000000E+00
  0.00000000E+00  0.00000000E+00  0.00000000E+00
  0.00000000E+00  0.00000000E+00  0.00000000E+00
  0.00000000E+00  0.00000000E+00  0.00000000E+00
  0.00000000E+00  0.00000000E+00  0.00000000E+00
  0.00000000E+00  0.00000000E+00  0.00000000E+00
  0.00000000E+00  0.00000000E+00  0.00000000E+00
  0.00000000E+00  0.00000000E+00  0.00000000E+00
  0.00000000E+00  0.00000000E+00  0.00000000E+00
  0.00000000E+00  0.00000000E+00  0.00000000E+00
  0.00000000E+00  0.00000000E+00  0.00000000E+00
  0.00000000E+00  0.00000000E+00  0.00000000E+00
  0.00000000E+00  0.00000000E+00  0.00000000E+00
  0.00000000E+00  0.00000000E+00  0.00000000E+00
  0.00000000E+00  0.00000000E+00  0.00000000E+00
  0.00000000E+00  0.00000000E+00  0.00000000E+00
  0.00000000E+00  0.00000000E+00  0.00000000E+00
  0.00000000E+00  0.00000000E+00  0.00000000E+00
  0.00000000E+00  0.00000000E+00  0.00000000E+00
  0.00000000E+00  0.00000000E+00  0.00000000E+00
  0.00000000E+00  0.00000000E+00  0.00000000E+00
  0.00000000E+00  0.00000000E+00  0.00000000E+00
  0.00000000E+00  0.00000000E+00  0.00000000E+00
  0.00000000E+00  0.00000000E+00  0.00000000E+00
  0.00000000E+00  0.00000000E+00  0.00000000E+00
  0.00000000E+00  0.00000000E+00  0.00000000E+00
  0.00000000E+00  0.00000000E+00  0.00000000E+00
  0.00000000E+00  0.00000000E+00  0.00000000E+00
  0.00000000E+00  0.00000000E+00  0.00000000E+00
  0.00000000E+00  0.00000000E+00  0.00000000E+00
  0.00000000E+00  0.00000000E+00  0.00000000E+00
