In36 Ga18 Cu6 Ag48 Se108                
   1.0000000000000000     
    16.6156713871333359    0.0023193209496287   -7.6385398460210912
    -3.5081989916322249   16.2459255409694947   -7.6249871628482806
     0.0179983612127857    0.0227739696555954   21.9637436368699781
   In   Ga   Cu   Ag   Se
    36    18     6    48   108
Direct
  0.4981280729272441  0.5006381711933088  0.0018548391199715
  0.1653311077934418  0.8376010182148832  0.0029904725689889
  0.8333703920993827  0.8372451979127646  0.0057141998014671
  0.1707447067601393  0.1657680496952878  0.0033490628739372
  0.5046177228959365  0.1670308276301498  0.0001720689504907
  0.8296344075900208  0.1618277425456611  0.0011086082222960
  0.1678833909289779  0.4974997137674038  0.3346795005644267
  0.5056479673857268  0.4976528555717650  0.3323781488033788
  0.8316857549689587  0.4956202475108782  0.3359821866306163
  0.1622139052004101  0.8345913490437553  0.3322886737663708
  0.5015001554162382  0.8338868753002160  0.3309331478631492
  0.8317633551888335  0.1689365102459135  0.3323407456687661
  0.1635178023423833  0.4938014427963324  0.6646859372589944
  0.4985280456713070  0.4973094247335297  0.6605542311571426
  0.8323731618492971  0.4964549057399736  0.6634956081974224
  0.1668591405033268  0.8312827150018478  0.6652500700127604
  0.5001314993453647  0.8334885904779696  0.6685348528268023
  0.8313256587949098  0.8297448537393564  0.6629768385398478
  0.1651927345891266  0.1722120745202673  0.6664948235917691
  0.4979115466629835  0.1644181175827413  0.6653586966857716
  0.8363032450063557  0.1722379786018209  0.6669851963300104
  0.2501894399138322  0.4176112423063429  0.1654166370255723
  0.9138919989769860  0.4151988800601387  0.1645268719690947
  0.2489306396450175  0.7483327303525158  0.1653725212911610
  0.5868676303046882  0.0822238181631150  0.1668127788519982
  0.2493111999419355  0.7484366947625247  0.4988240824493744
  0.5835231599878767  0.7484731089866656  0.5004462997414478
  0.5871362383178536  0.0879181668346192  0.4972794642960991
  0.9110473989261294  0.0871259764374130  0.4980631282683916
  0.5871322406537800  0.4187660218951237  0.8349765240391420
  0.9208526613491372  0.4209378398819936  0.8385176532847680
  0.2572402852086952  0.7530596993539262  0.8364947960035138
  0.5810916259767609  0.7516457644855876  0.8341713060862190
  0.9133913958215558  0.7474672215872076  0.8328741066638301
  0.2548264626876531  0.0811089806392999  0.8343142868596729
  0.9164714758732870  0.0851147921074258  0.8343659911388599
  0.1698437418470320  0.5025222381065646  0.9998496167873938
  0.8321770325263529  0.5054129532440115  0.0033827262343351
  0.5071225754410165  0.8341833291011511  0.0026413827499638
  0.8329794841208198  0.8349907268338086  0.3303542077990258
  0.1634985754568348  0.1663515072667749  0.3335958532820271
  0.5028587581893333  0.1698359936813745  0.3358648726253151
  0.5892484661253405  0.4122733847631181  0.1674740682446014
  0.5872207260641105  0.7551901224877611  0.1652676560110535
  0.9110253731995144  0.7524811054934659  0.1680865085230607
  0.2558227356259621  0.0878818636948679  0.1738292307471028
  0.9110822353150496  0.0834889299428596  0.1707517938745866
  0.2450733222279311  0.4123575205133534  0.4969933388005074
  0.5845051331755258  0.4129727802605387  0.4983194382863729
  0.9154461128712441  0.4094585352505078  0.5009674000762914
  0.9168659741916443  0.7498856549375716  0.4950141879498560
  0.2481527038785174  0.0845569618952524  0.4976546222700691
  0.2457835996811042  0.4175711348614186  0.8340826804664374
  0.5803599563023809  0.0793408931774024  0.8326142640296581
  0.9963207117340218  0.3346477593155655  0.6644179488405300
  0.6639569340470501  0.6592560791155719  0.6617467162071122
  0.7493075167316121  0.9151018889569613  0.1688971498638310
  0.7517743611958281  0.2507588027441159  0.1675987948144950
  0.7509189780680856  0.2554579169557272  0.4983588484118187
  0.4209281403557554  0.9170548897424027  0.8364709438336817
  0.9996880458894495  0.3368576330594166  0.0004239490096651
  0.3306655448365632  0.3376496052962921  0.9988607987960236
  0.6670090078420330  0.3329294146953217  0.0025259579755001
  0.0003107733876107  0.6644732021758841  0.0066436865063437
  0.3405143554651460  0.6714252289112608  0.0047882626217088
  0.6712932106562306  0.6706546786827943  0.0053354535586010
  0.0066220400537844  0.0085428553922142  0.0092985298789969
  0.3350646694411026  0.9911519037312218  0.0007467005476869
  0.6660132491217254  0.0039718842029259  0.0045363892739090
  0.9991326583678415  0.3339802075477891  0.3331326131704984
  0.3335222771625297  0.3298331992260302  0.3336828200577457
  0.6665979650442608  0.3282673074593490  0.3358777466036571
  0.9944138862160017  0.6666267565215875  0.3309194438471437
  0.3322467692902435  0.6659239436986297  0.3320099723739389
  0.6672002219157704  0.6690004336391411  0.3275323644529351
  0.9972302591606166  0.9992766922323355  0.3268011031372282
  0.3304206542953096  0.0022818133210194  0.3324110185121256
  0.6699465506895734  0.9966047270762886  0.3291903573164063
  0.3341205166818924  0.3335576477329454  0.6676857419374329
  0.6671980354970302  0.3336313866287384  0.6625382624188987
  0.9948212479987433  0.6662609070901695  0.6609975031170094
  0.3353547322627861  0.6616451530139784  0.6639912820444351
  0.9997630383604275  0.9953180974832208  0.6636258697303177
  0.3283600783427474  0.9998286200883726  0.6650996982155846
  0.6692184347463410  0.0059385619804857  0.6716127784077344
  0.0774458496552271  0.5816312235481362  0.1612990567134958
  0.4219494122982184  0.5807543253798926  0.1646432099418078
  0.7498280887848310  0.5862981138192040  0.1684719376103487
  0.0835501640206786  0.9275218285474622  0.1698875158194824
  0.4233913242379685  0.9204717730634329  0.1676793510127936
  0.0767416823466931  0.2445029131403871  0.1721652382355217
  0.4212366683717121  0.2469529653831231  0.1691989786924992
  0.0760337806070694  0.5791414442285543  0.5006504888699510
  0.4222693694456296  0.5777043740626837  0.4992719157613905
  0.7501428578842919  0.5794536748817549  0.5019135024732577
  0.0779854226217012  0.9230739743599585  0.4971999068282855
  0.4152100689149165  0.9196373243093703  0.4965969637823875
  0.7530743755970235  0.9084620886032155  0.4959324938573317
  0.0841685900224647  0.2444701792005048  0.4971907637064632
  0.4084594968015054  0.2483981294057998  0.4933007427116536
  0.0886424873391007  0.5816478714677089  0.8336890970143855
  0.4164028233085588  0.5836455259278139  0.8365597167938148
  0.7444962412569822  0.5871667384132095  0.8318549945454023
  0.0831860122783539  0.9147235014024133  0.8329943728445670
  0.7496974918713519  0.9090291475582077  0.8273424042116488
  0.0857902076356112  0.2508342080896497  0.8324866582346715
  0.4164480503286754  0.2495128156966047  0.8305220770464814
  0.7475000441526518  0.2561729682420193  0.8416294437503566
  0.1287705542951869  0.4621684627855629  0.0774253338522470
  0.4699660174175548  0.4513920204620234  0.0889914578261184
  0.7917563249057409  0.4618626852485761  0.0793482257225833
  0.1229410269822750  0.7954760937337824  0.0866418385571492
  0.4702458462899983  0.7959739875722605  0.0844549005913109
  0.7952714037754021  0.8000371088038705  0.0952597340486108
  0.1386558697914992  0.1283452369918407  0.0954655415914516
  0.4602191568257012  0.1206925078829144  0.0807019936386126
  0.7948674443254262  0.1313210424531022  0.0958205029419616
  0.1290963740914535  0.4561676486415465  0.4213508415935365
  0.4676169909180956  0.4508286481489634  0.4170925593900918
  0.7983835598578608  0.4517879946929710  0.4243685407181061
  0.1228742032161634  0.7927114958092787  0.4173221110285255
  0.4591727748897441  0.7915574576258990  0.4150542857083224
  0.8015737158195222  0.7897584915547071  0.4111456877452540
  0.1304621308708533  0.1209521508016067  0.4132798010515657
  0.4603780605159216  0.1276187072096633  0.4108095875033513
  0.7850902142900864  0.1349402908223425  0.4183838553196821
  0.1222741589666398  0.4466276361081114  0.7479889902028987
  0.4614872757116828  0.4605776664359524  0.7501560164472139
  0.7937466082505011  0.4611722138510927  0.7527076823122272
  0.1265752854489293  0.7890225102260260  0.7499599025602706
  0.4533929605486193  0.7972788607434396  0.7539877211721731
  0.7820498136838197  0.7765688431460376  0.7388862465410355
  0.1274535124994856  0.1217858668793781  0.7487143189873535
  0.4637220014332541  0.1209537559535505  0.7534016562813477
  0.7942415317107461  0.1345415050737842  0.7538910370989740
  0.2889149218195541  0.6194832366536005  0.0803859296494878
  0.6209929571747779  0.6319945957038300  0.0874883167094680
  0.9450399400313643  0.6288231046080384  0.0872517331867542
  0.2903341630504315  0.9667684946931345  0.0925753151590172
  0.6295739585700417  0.9493322020080512  0.0868585330842251
  0.9525095024098604  0.9707259595788784  0.0903162395599750
  0.2959239106262856  0.2920972895527711  0.0851043001748550
  0.6337630881956713  0.2933173699966503  0.0929796442722122
  0.9567005829605577  0.2880723815159172  0.0819263173660900
  0.2944024208749667  0.6229068028829872  0.4175979260525722
  0.6290086101315495  0.6265937869238911  0.4152315441474315
  0.9535194976193679  0.6277379932482248  0.4179367602104875
  0.2859082022335500  0.9655032915833175  0.4186018425068951
  0.6285306391125829  0.9582451687323896  0.4160448826118852
  0.9467521535584638  0.9574200650754676  0.4086315949277335
  0.2764581657097764  0.2904212991929427  0.4129362018143397
  0.6244431757532425  0.2898119226054376  0.4219993528967620
  0.9571675734472862  0.2961370215635029  0.4211774934807480
  0.2890845557869071  0.6212501439659235  0.7480154564155441
  0.6220250341151541  0.6282884614457416  0.7427350177224028
  0.9588938309964448  0.6234174049333348  0.7490554765578139
  0.3005421516903439  0.9526339762121196  0.7549907517001273
  0.6231231048287498  0.9644058876153352  0.7547270785337119
  0.9562839286294320  0.9571115148854901  0.7495991254433960
  0.2890308996697541  0.3015564643785993  0.7566260311781576
  0.6238255440451113  0.2915182537710592  0.7467836482561196
  0.9630882313045745  0.2990458285772704  0.7476950742448381
  0.2064898355700180  0.3716696381325875  0.2472717797771935
  0.5482334755073381  0.3739601748160055  0.2458498956957413
  0.8681810879416787  0.3681754250116285  0.2453640243879178
  0.2055905772809297  0.7083640856971130  0.2495901721818683
  0.5443032951794464  0.7133370136680171  0.2409806806214689
  0.8730571285488935  0.7183911704331791  0.2503030843685323
  0.2092500599221907  0.0553485459864973  0.2531666250494240
  0.5445514006729226  0.0533050708399045  0.2576762564244035
  0.8646971070064779  0.0367941675569270  0.2422949321053451
  0.2096759000734849  0.3739628060461300  0.5776000431923407
  0.5404647942522942  0.3726803457873089  0.5740852892423192
  0.8755402003595876  0.3666664244687183  0.5792348828455545
  0.2061092627938805  0.7035597376621467  0.5807446541584085
  0.5487730299585323  0.7058900628477858  0.5890640569280876
  0.8743561763427863  0.7100703273309747  0.5724563645969809
  0.2077854437158706  0.0480310696223327  0.5780253792731358
  0.5441555460334015  0.0440818607053970  0.5804420781765671
  0.8743565033891585  0.0424182736352705  0.5830078598348436
  0.2078294174335014  0.3849808001486323  0.9173730541178884
  0.5427181266203505  0.3770504697064538  0.9177044221760013
  0.8723480735122067  0.3871244983386433  0.9247758962815880
  0.2122448723744412  0.7136917002580176  0.9206744579522734
  0.5417358776042605  0.7130664132186624  0.9222343678262135
  0.8753498475425872  0.7105299186425071  0.9216676506622932
  0.2112818074553715  0.0393534157399529  0.9180328996628120
  0.5376111745817269  0.0360587913152557  0.9087200888081526
  0.8750444807304874  0.0388526519427117  0.9168912504520890
  0.0412323236583561  0.5403589642279343  0.2505190770095069
  0.3787570364816801  0.5414594520690912  0.2507504926315107
  0.7043093061298151  0.5324348170255604  0.2462802517795311
  0.0322829776950471  0.8664371077294035  0.2412627862959482
  0.3739745611001197  0.8757897284115757  0.2483234259566061
  0.7121148245225513  0.8700343123943099  0.2456522706751585
  0.0361124927053709  0.1969476351622035  0.2544158681783202
  0.3797572571071655  0.2021783844788700  0.2532130759724680
  0.7102978617909130  0.2111670380515349  0.2437735541841590
  0.0310828072524529  0.5294066648992342  0.5799166897078649
  0.3650097763789120  0.5292271872719638  0.5731950260712892
  0.6986391237533667  0.5375053690594811  0.5822702388939973
  0.0365745339045773  0.8669679106341377  0.5759260934944379
  0.3753434078218021  0.8744866439683960  0.5815129588712935
  0.7071290376052914  0.8772366246698979  0.5835747641565447
  0.0363024212333443  0.2168778240515579  0.5863334020480337
  0.3674716964519078  0.2016697440853008  0.5778862505803772
  0.7143264897928319  0.2137844536279161  0.5768099874155936
  0.0513214531417887  0.5444212194769591  0.9247118737010567
  0.3660738359538982  0.5343767139125433  0.9131434278294819
  0.7151152045048121  0.5439106464780039  0.9228615623708478
  0.0374657416926212  0.8767279431633028  0.9176871547985783
  0.3911162825640844  0.8754742714304342  0.9197325289260334
  0.7082227047397964  0.8768201817260106  0.9180080626547209
  0.0449664300038890  0.2092407477429461  0.9188546985447630
  0.3773881274338819  0.2102830927319275  0.9183151860948016
  0.6985277121133251  0.1980851087581001  0.9143834439604390

  0.00000000E+00  0.00000000E+00  0.00000000E+00
  0.00000000E+00  0.00000000E+00  0.00000000E+00
  0.00000000E+00  0.00000000E+00  0.00000000E+00
  0.00000000E+00  0.00000000E+00  0.00000000E+00
  0.00000000E+00  0.00000000E+00  0.00000000E+00
  0.00000000E+00  0.00000000E+00  0.00000000E+00
  0.00000000E+00  0.00000000E+00  0.00000000E+00
  0.00000000E+00  0.00000000E+00  0.00000000E+00
  0.00000000E+00  0.00000000E+00  0.00000000E+00
  0.00000000E+00  0.00000000E+00  0.00000000E+00
  0.00000000E+00  0.00000000E+00  0.00000000E+00
  0.00000000E+00  0.00000000E+00  0.00000000E+00
  0.00000000E+00  0.00000000E+00  0.00000000E+00
  0.00000000E+00  0.00000000E+00  0.00000000E+00
  0.00000000E+00  0.00000000E+00  0.00000000E+00
  0.00000000E+00  0.00000000E+00  0.00000000E+00
  0.00000000E+00  0.00000000E+00  0.00000000E+00
  0.00000000E+00  0.00000000E+00  0.00000000E+00
  0.00000000E+00  0.00000000E+00  0.00000000E+00
  0.00000000E+00  0.00000000E+00  0.00000000E+00
  0.00000000E+00  0.00000000E+00  0.00000000E+00
  0.00000000E+00  0.00000000E+00  0.00000000E+00
  0.00000000E+00  0.00000000E+00  0.00000000E+00
  0.00000000E+00  0.00000000E+00  0.00000000E+00
  0.00000000E+00  0.00000000E+00  0.00000000E+00
  0.00000000E+00  0.00000000E+00  0.00000000E+00
  0.00000000E+00  0.00000000E+00  0.00000000E+00
  0.00000000E+00  0.00000000E+00  0.00000000E+00
  0.00000000E+00  0.00000000E+00  0.00000000E+00
  0.00000000E+00  0.00000000E+00  0.00000000E+00
  0.00000000E+00  0.00000000E+00  0.00000000E+00
  0.00000000E+00  0.00000000E+00  0.00000000E+00
  0.00000000E+00  0.00000000E+00  0.00000000E+00
  0.00000000E+00  0.00000000E+00  0.00000000E+00
  0.00000000E+00  0.00000000E+00  0.00000000E+00
  0.00000000E+00  0.00000000E+00  0.00000000E+00
  0.00000000E+00  0.00000000E+00  0.00000000E+00
  0.00000000E+00  0.00000000E+00  0.00000000E+00
  0.00000000E+00  0.00000000E+00  0.00000000E+00
  0.00000000E+00  0.00000000E+00  0.00000000E+00
  0.00000000E+00  0.00000000E+00  0.00000000E+00
  0.00000000E+00  0.00000000E+00  0.00000000E+00
  0.00000000E+00  0.00000000E+00  0.00000000E+00
  0.00000000E+00  0.00000000E+00  0.00000000E+00
  0.00000000E+00  0.00000000E+00  0.00000000E+00
  0.00000000E+00  0.00000000E+00  0.00000000E+00
  0.00000000E+00  0.00000000E+00  0.00000000E+00
  0.00000000E+00  0.00000000E+00  0.00000000E+00
  0.00000000E+00  0.00000000E+00  0.00000000E+00
  0.00000000E+00  0.00000000E+00  0.00000000E+00
  0.00000000E+00  0.00000000E+00  0.00000000E+00
  0.00000000E+00  0.00000000E+00  0.00000000E+00
  0.00000000E+00  0.00000000E+00  0.00000000E+00
  0.00000000E+00  0.00000000E+00  0.00000000E+00
  0.00000000E+00  0.00000000E+00  0.00000000E+00
  0.00000000E+00  0.00000000E+00  0.00000000E+00
  0.00000000E+00  0.00000000E+00  0.00000000E+00
  0.00000000E+00  0.00000000E+00  0.00000000E+00
  0.00000000E+00  0.00000000E+00  0.00000000E+00
  0.00000000E+00  0.00000000E+00  0.00000000E+00
  0.00000000E+00  0.00000000E+00  0.00000000E+00
  0.00000000E+00  0.00000000E+00  0.00000000E+00
  0.00000000E+00  0.00000000E+00  0.00000000E+00
  0.00000000E+00  0.00000000E+00  0.00000000E+00
  0.00000000E+00  0.00000000E+00  0.00000000E+00
  0.00000000E+00  0.00000000E+00  0.00000000E+00
  0.00000000E+00  0.00000000E+00  0.00000000E+00
  0.00000000E+00  0.00000000E+00  0.00000000E+00
  0.00000000E+00  0.00000000E+00  0.00000000E+00
  0.00000000E+00  0.00000000E+00  0.00000000E+00
  0.00000000E+00  0.00000000E+00  0.00000000E+00
  0.00000000E+00  0.00000000E+00  0.00000000E+00
  0.00000000E+00  0.00000000E+00  0.00000000E+00
  0.00000000E+00  0.00000000E+00  0.00000000E+00
  0.00000000E+00  0.00000000E+00  0.00000000E+00
  0.00000000E+00  0.00000000E+00  0.00000000E+00
  0.00000000E+00  0.00000000E+00  0.00000000E+00
  0.00000000E+00  0.00000000E+00  0.00000000E+00
  0.00000000E+00  0.00000000E+00  0.00000000E+00
  0.00000000E+00  0.00000000E+00  0.00000000E+00
  0.00000000E+00  0.00000000E+00  0.00000000E+00
  0.00000000E+00  0.00000000E+00  0.00000000E+00
  0.00000000E+00  0.00000000E+00  0.00000000E+00
  0.00000000E+00  0.00000000E+00  0.00000000E+00
  0.00000000E+00  0.00000000E+00  0.00000000E+00
  0.00000000E+00  0.00000000E+00  0.00000000E+00
  0.00000000E+00  0.00000000E+00  0.00000000E+00
  0.00000000E+00  0.00000000E+00  0.00000000E+00
  0.00000000E+00  0.00000000E+00  0.00000000E+00
  0.00000000E+00  0.00000000E+00  0.00000000E+00
  0.00000000E+00  0.00000000E+00  0.00000000E+00
  0.00000000E+00  0.00000000E+00  0.00000000E+00
  0.00000000E+00  0.00000000E+00  0.00000000E+00
  0.00000000E+00  0.00000000E+00  0.00000000E+00
  0.00000000E+00  0.00000000E+00  0.00000000E+00
  0.00000000E+00  0.00000000E+00  0.00000000E+00
  0.00000000E+00  0.00000000E+00  0.00000000E+00
  0.00000000E+00  0.00000000E+00  0.00000000E+00
  0.00000000E+00  0.00000000E+00  0.00000000E+00
  0.00000000E+00  0.00000000E+00  0.00000000E+00
  0.00000000E+00  0.00000000E+00  0.00000000E+00
  0.00000000E+00  0.00000000E+00  0.00000000E+00
  0.00000000E+00  0.00000000E+00  0.00000000E+00
  0.00000000E+00  0.00000000E+00  0.00000000E+00
  0.00000000E+00  0.00000000E+00  0.00000000E+00
  0.00000000E+00  0.00000000E+00  0.00000000E+00
  0.00000000E+00  0.00000000E+00  0.00000000E+00
  0.00000000E+00  0.00000000E+00  0.00000000E+00
  0.00000000E+00  0.00000000E+00  0.00000000E+00
  0.00000000E+00  0.00000000E+00  0.00000000E+00
  0.00000000E+00  0.00000000E+00  0.00000000E+00
  0.00000000E+00  0.00000000E+00  0.00000000E+00
  0.00000000E+00  0.00000000E+00  0.00000000E+00
  0.00000000E+00  0.00000000E+00  0.00000000E+00
  0.00000000E+00  0.00000000E+00  0.00000000E+00
  0.00000000E+00  0.00000000E+00  0.00000000E+00
  0.00000000E+00  0.00000000E+00  0.00000000E+00
  0.00000000E+00  0.00000000E+00  0.00000000E+00
  0.00000000E+00  0.00000000E+00  0.00000000E+00
  0.00000000E+00  0.00000000E+00  0.00000000E+00
  0.00000000E+00  0.00000000E+00  0.00000000E+00
  0.00000000E+00  0.00000000E+00  0.00000000E+00
  0.00000000E+00  0.00000000E+00  0.00000000E+00
  0.00000000E+00  0.00000000E+00  0.00000000E+00
  0.00000000E+00  0.00000000E+00  0.00000000E+00
  0.00000000E+00  0.00000000E+00  0.00000000E+00
  0.00000000E+00  0.00000000E+00  0.00000000E+00
  0.00000000E+00  0.00000000E+00  0.00000000E+00
  0.00000000E+00  0.00000000E+00  0.00000000E+00
  0.00000000E+00  0.00000000E+00  0.00000000E+00
  0.00000000E+00  0.00000000E+00  0.00000000E+00
  0.00000000E+00  0.00000000E+00  0.00000000E+00
  0.00000000E+00  0.00000000E+00  0.00000000E+00
  0.00000000E+00  0.00000000E+00  0.00000000E+00
  0.00000000E+00  0.00000000E+00  0.00000000E+00
  0.00000000E+00  0.00000000E+00  0.00000000E+00
  0.00000000E+00  0.00000000E+00  0.00000000E+00
  0.00000000E+00  0.00000000E+00  0.00000000E+00
  0.00000000E+00  0.00000000E+00  0.00000000E+00
  0.00000000E+00  0.00000000E+00  0.00000000E+00
  0.00000000E+00  0.00000000E+00  0.00000000E+00
  0.00000000E+00  0.00000000E+00  0.00000000E+00
  0.00000000E+00  0.00000000E+00  0.00000000E+00
  0.00000000E+00  0.00000000E+00  0.00000000E+00
  0.00000000E+00  0.00000000E+00  0.00000000E+00
  0.00000000E+00  0.00000000E+00  0.00000000E+00
  0.00000000E+00  0.00000000E+00  0.00000000E+00
  0.00000000E+00  0.00000000E+00  0.00000000E+00
  0.00000000E+00  0.00000000E+00  0.00000000E+00
  0.00000000E+00  0.00000000E+00  0.00000000E+00
  0.00000000E+00  0.00000000E+00  0.00000000E+00
  0.00000000E+00  0.00000000E+00  0.00000000E+00
  0.00000000E+00  0.00000000E+00  0.00000000E+00
  0.00000000E+00  0.00000000E+00  0.00000000E+00
  0.00000000E+00  0.00000000E+00  0.00000000E+00
  0.00000000E+00  0.00000000E+00  0.00000000E+00
  0.00000000E+00  0.00000000E+00  0.00000000E+00
  0.00000000E+00  0.00000000E+00  0.00000000E+00
  0.00000000E+00  0.00000000E+00  0.00000000E+00
  0.00000000E+00  0.00000000E+00  0.00000000E+00
  0.00000000E+00  0.00000000E+00  0.00000000E+00
  0.00000000E+00  0.00000000E+00  0.00000000E+00
  0.00000000E+00  0.00000000E+00  0.00000000E+00
  0.00000000E+00  0.00000000E+00  0.00000000E+00
  0.00000000E+00  0.00000000E+00  0.00000000E+00
  0.00000000E+00  0.00000000E+00  0.00000000E+00
  0.00000000E+00  0.00000000E+00  0.00000000E+00
  0.00000000E+00  0.00000000E+00  0.00000000E+00
  0.00000000E+00  0.00000000E+00  0.00000000E+00
  0.00000000E+00  0.00000000E+00  0.00000000E+00
  0.00000000E+00  0.00000000E+00  0.00000000E+00
  0.00000000E+00  0.00000000E+00  0.00000000E+00
  0.00000000E+00  0.00000000E+00  0.00000000E+00
  0.00000000E+00  0.00000000E+00  0.00000000E+00
  0.00000000E+00  0.00000000E+00  0.00000000E+00
  0.00000000E+00  0.00000000E+00  0.00000000E+00
  0.00000000E+00  0.00000000E+00  0.00000000E+00
  0.00000000E+00  0.00000000E+00  0.00000000E+00
  0.00000000E+00  0.00000000E+00  0.00000000E+00
  0.00000000E+00  0.00000000E+00  0.00000000E+00
  0.00000000E+00  0.00000000E+00  0.00000000E+00
  0.00000000E+00  0.00000000E+00  0.00000000E+00
  0.00000000E+00  0.00000000E+00  0.00000000E+00
  0.00000000E+00  0.00000000E+00  0.00000000E+00
  0.00000000E+00  0.00000000E+00  0.00000000E+00
  0.00000000E+00  0.00000000E+00  0.00000000E+00
  0.00000000E+00  0.00000000E+00  0.00000000E+00
  0.00000000E+00  0.00000000E+00  0.00000000E+00
  0.00000000E+00  0.00000000E+00  0.00000000E+00
  0.00000000E+00  0.00000000E+00  0.00000000E+00
  0.00000000E+00  0.00000000E+00  0.00000000E+00
  0.00000000E+00  0.00000000E+00  0.00000000E+00
  0.00000000E+00  0.00000000E+00  0.00000000E+00
  0.00000000E+00  0.00000000E+00  0.00000000E+00
  0.00000000E+00  0.00000000E+00  0.00000000E+00
  0.00000000E+00  0.00000000E+00  0.00000000E+00
  0.00000000E+00  0.00000000E+00  0.00000000E+00
  0.00000000E+00  0.00000000E+00  0.00000000E+00
  0.00000000E+00  0.00000000E+00  0.00000000E+00
  0.00000000E+00  0.00000000E+00  0.00000000E+00
  0.00000000E+00  0.00000000E+00  0.00000000E+00
  0.00000000E+00  0.00000000E+00  0.00000000E+00
  0.00000000E+00  0.00000000E+00  0.00000000E+00
  0.00000000E+00  0.00000000E+00  0.00000000E+00
  0.00000000E+00  0.00000000E+00  0.00000000E+00
  0.00000000E+00  0.00000000E+00  0.00000000E+00
  0.00000000E+00  0.00000000E+00  0.00000000E+00
  0.00000000E+00  0.00000000E+00  0.00000000E+00
  0.00000000E+00  0.00000000E+00  0.00000000E+00
  0.00000000E+00  0.00000000E+00  0.00000000E+00
  0.00000000E+00  0.00000000E+00  0.00000000E+00
  0.00000000E+00  0.00000000E+00  0.00000000E+00
  0.00000000E+00  0.00000000E+00  0.00000000E+00
  0.00000000E+00  0.00000000E+00  0.00000000E+00
  0.00000000E+00  0.00000000E+00  0.00000000E+00
  0.00000000E+00  0.00000000E+00  0.00000000E+00
