Ga54 Cu42 Ag12 Se108                    
   1.0000000000000000     
    15.7143649980530391    0.0002835546587480   -7.1054209096984078
    -3.2243075502197112   15.3759895156504758   -7.1149109709794027
     0.0017741032432840    0.0023088296361101   20.8991349162905138
   Ga   Cu   Ag   Se
    54    42    12   108
Direct
  0.1641973568134958  0.4970268269085452  0.0010345311990676
  0.5027381041074221  0.4995599462889757  0.0003443784651225
  0.8343212852426589  0.4982465533478120  0.0020520971805382
  0.1618115487219924  0.8328807985994118  0.9983866191264781
  0.5069950969167820  0.8297242078982023  0.0009643887231405
  0.8316924750764727  0.8362181689229118  0.0008816242489118
  0.1631273858997346  0.1704090862696432  0.9997793783018025
  0.5047472911349757  0.1715361069513293  0.0031646426895477
  0.8346962575303536  0.1686547658837299  0.0006309903912509
  0.1678395461266788  0.4985579206870625  0.3324355483306078
  0.4977137404959535  0.5022321303852308  0.3338084429244574
  0.8341679225945455  0.5020771275981915  0.3333980387681663
  0.1672413518326437  0.8313345871290423  0.3342570525208828
  0.4990984112444536  0.8315634017187037  0.3328841090032242
  0.8316319934450291  0.8341262830328304  0.3322631045825375
  0.1674199004486141  0.1693098820249830  0.3347031044467883
  0.4986573579168407  0.1664362965476300  0.3332729708673909
  0.8361277554579942  0.1638155383910274  0.3326927677065257
  0.1694392703420675  0.4944090739581597  0.6677180259920164
  0.4962440409009119  0.4969140855412491  0.6659025624660160
  0.8329677800201196  0.4938549291821559  0.6644197811792978
  0.1674618788472202  0.8377829694933965  0.6679999315096978
  0.4999096783653130  0.8345590832325271  0.6651323237253450
  0.8317594382341440  0.8384955598745236  0.6663309887826827
  0.1636585344805894  0.1684299367514512  0.6647354699397283
  0.5017454675553310  0.1654220694627355  0.6646386516233633
  0.8324619279253298  0.1657153690184643  0.6661632927741152
  0.2494230340981289  0.4169610801433521  0.1673409661559830
  0.5827084014197084  0.4198181695413368  0.1668638781899645
  0.9186884526289205  0.4165732994071902  0.1685658858942460
  0.2492751756816602  0.7454622194246951  0.1675831165181378
  0.5873001323079450  0.7482688410070821  0.1684620807524553
  0.9151449535290581  0.7482855062010358  0.1668277162430414
  0.2472363129961792  0.0876630327349517  0.1676998495465227
  0.5893857574298735  0.0843840026884024  0.1675850650283337
  0.9154797768674854  0.0861749237731573  0.1663855169865229
  0.2508812553768109  0.4142447012033301  0.4986883320242228
  0.5813430147809342  0.4147249530435388  0.5002119444175221
  0.9184630655034240  0.4123504563237859  0.4998457829255187
  0.2541281645223776  0.7495298156999368  0.5008324226751881
  0.5818128142920997  0.7512072831566883  0.4981230183506540
  0.9105430579106155  0.7520144834216609  0.4986719474719479
  0.2513546484759530  0.0856804533510527  0.4996296140388807
  0.5831642198792011  0.0813438225071295  0.4977126053693084
  0.9132978485245502  0.0846111037903867  0.4993095876539968
  0.2482835032559336  0.4154250427471453  0.8335206842480289
  0.5846394261282555  0.4158058788048606  0.8343322937391946
  0.9172586004143781  0.4124059695624283  0.8321574147867850
  0.2508551579024072  0.7465718419416660  0.8327967901578361
  0.5823682043140437  0.7488501999992465  0.8323061661424873
  0.9170518014057265  0.7529674669725850  0.8347968798199048
  0.2455221576921502  0.0876166983696933  0.8327419609660467
  0.5888568937538707  0.0850742319737776  0.8340437076098155
  0.9152529051547660  0.0852503556581681  0.8331060529000922
  0.9978065111556020  0.3337208030966607  0.0005648926051762
  0.3327039662946092  0.3368546518047566  0.0030988414266346
  0.6730456502472677  0.3341484884416843  0.0033679696427953
  0.9992613128157330  0.6612214088533577  0.0001105526709466
  0.6679158755322661  0.6675195563014853  0.0028153365275756
  0.9994487562362124  0.0029022924193569  0.9979071477688493
  0.6710311602350245  0.0007220859251831  0.0012316488551392
  0.9986802698253356  0.3299391867950945  0.3315770200465806
  0.3337730403066033  0.3325896416980925  0.3330532269623063
  0.9983155741007437  0.6656364874989720  0.3293170796373843
  0.3315188008814474  0.6671243203724941  0.3338138954075163
  0.6663354417379637  0.6679630483842516  0.3335941000217275
  0.0006830623518397  0.0029597024104007  0.3333458631105373
  0.3336752702325683  0.0003495647906817  0.3367460165488367
  0.6699182981829637  0.9989170686379794  0.3344590651269996
  0.0006683159183751  0.3318287110703864  0.6668537934136083
  0.3344416946373983  0.3315373551555680  0.6639333596574417
  0.6621763684449675  0.3269979475633349  0.6629631190251217
  0.3344931082327918  0.6629304652605583  0.6672835272245194
  0.9984682904483932  0.0049708453931103  0.6680621579574435
  0.3348567913265299  0.9999691915664215  0.6641626301084145
  0.6650569882668123  0.0008990150987742  0.6662371169854993
  0.0821614145291747  0.5818888149455361  0.1669932228807909
  0.4194834283567346  0.5809639313555266  0.1694493579698886
  0.7504678234886768  0.5822043935459718  0.1682041293680498
  0.7505056772127503  0.9164553088019289  0.1659656156062965
  0.0834862418517446  0.2517374960094543  0.1675773472093738
  0.4142428944966383  0.2520591185000924  0.1667069030836856
  0.7526146253616233  0.2539328915286632  0.1653362613719551
  0.4141526248523988  0.5789973969870985  0.4979064519028711
  0.7455646844109864  0.5833278185981428  0.4973327918963193
  0.4171151555792463  0.9167878686244464  0.4987248631503505
  0.7475666981051532  0.9177978692476998  0.4993874189589960
  0.0835438012518495  0.2491674890339226  0.4995488314661074
  0.4181326753635517  0.2487838035277292  0.4990066924494769
  0.7509047878999837  0.2486662635385173  0.5012793210100099
  0.0796370024920066  0.5784978571291077  0.8325749954935873
  0.4187059523078887  0.5823184491074329  0.8311703957916308
  0.0783806319369447  0.9177795625153848  0.8323880129395249
  0.7502943171877732  0.9204358793390668  0.8359754216043527
  0.0827404652415140  0.2508877376979797  0.8341032548937193
  0.7508103502934134  0.2503581296955488  0.8325394139830493
  0.3279003577838182  0.6620191227777212  0.9966787409389752
  0.3343908256980299  0.0062717460168003  0.9995033423882660
  0.6681851274346400  0.3337557899824120  0.3340618330107503
  0.9999690965021415  0.6712523669394699  0.6695226956388183
  0.6670069215173484  0.6671184538544850  0.6638360658432063
  0.0822572461875453  0.9159478403267514  0.1659055665837101
  0.4186006644910449  0.9189601246571684  0.1695456230918282
  0.0843078837720057  0.5857249799807889  0.4992693067529288
  0.0830379756126050  0.9170894171230657  0.5006436100012479
  0.7574685964392742  0.5814912858539998  0.8356625156568498
  0.4165610791152332  0.9207593823180531  0.8333488119669283
  0.4149679071948285  0.2486943034134868  0.8324190961444842
  0.1210480392419626  0.4565650669057035  0.0842864269854218
  0.4565908291582730  0.4592250524818837  0.0825523171344926
  0.7934496675491758  0.4590373709360449  0.0871636499119006
  0.1248735104149503  0.7809266265307713  0.0784285886597118
  0.4667940343808894  0.7888668686991096  0.0836094796430586
  0.7904306510809818  0.7917956375476294  0.0836390581513768
  0.1210531424850743  0.1276609685029513  0.0832348023886453
  0.4683517866621969  0.1353803935175648  0.0912897584166288
  0.7903796691743850  0.1279301310914533  0.0832203348581970
  0.1253099966328080  0.4495686901079026  0.4109028609028869
  0.4566560537514519  0.4572221547375435  0.4165860620170179
  0.8003830925296853  0.4669636087952966  0.4231874744930408
  0.1264127296525714  0.7828355432687530  0.4135196677492985
  0.4551291765801793  0.7912074070237480  0.4154068761688521
  0.7866347719759261  0.7944791180071817  0.4154160389696955
  0.1238136020622136  0.1256079684705966  0.4164447461179108
  0.4562347196719188  0.1230997471635646  0.4158909199834824
  0.7889374760103038  0.1260186383546866  0.4158782261693119
  0.1225965328659271  0.4572507864896025  0.7511399169609447
  0.4564781021711823  0.4551410698961362  0.7499763324095525
  0.7902829610702966  0.4448214214282942  0.7426631774635695
  0.1336367469020985  0.8020579121015956  0.7572864495409064
  0.4582943099522581  0.7852494105185315  0.7445074386919330
  0.7966303058640705  0.8014440158333329  0.7551851007186272
  0.1207971296840782  0.1285537338788316  0.7486275394834792
  0.4618580872427316  0.1177970468135641  0.7453217850887910
  0.7883962765586574  0.1249773469845294  0.7490720199295069
  0.2917196940617046  0.6186093802530408  0.0889314632355180
  0.6292372131739654  0.6241218687696488  0.0851039723505878
  0.9596323650614025  0.6238387461655392  0.0842656711067349
  0.2820937341238050  0.9597167426583297  0.0833055247791421
  0.6291604280818248  0.9580331913970568  0.0823164237905374
  0.9525353020935583  0.9634757439098323  0.0781705378433344
  0.2916341815561552  0.2925744942945556  0.0836071882293723
  0.6293119334602295  0.2968271159518565  0.0857213719026504
  0.9609285133212708  0.2925923981912462  0.0846653560295678
  0.2939815879566154  0.6229033584059422  0.4164893587867056
  0.6247059260415213  0.6255824164013646  0.4154799013111656
  0.9528950917983749  0.6314451133694661  0.4122788751394282
  0.2921854416837775  0.9578390068257292  0.4174282210928624
  0.6251777422435865  0.9566700347229684  0.4141516327394825
  0.9521480998404499  0.9623153748725386  0.4119128457181134
  0.2956720141794946  0.2911358249118550  0.4169521270264056
  0.6240629132964486  0.2885028288565010  0.4219755081673000
  0.9611242151194759  0.2891687379581143  0.4154607708146614
  0.2934372315975224  0.6217149229336059  0.7492915876920705
  0.6187860556279645  0.6216014505668710  0.7493865729335454
  0.9545723192997642  0.6211534568644907  0.7547898359702572
  0.2862435578905504  0.9668270339624812  0.7455780034295856
  0.6283536735267745  0.9578228434782261  0.7498521646113758
  0.9587248948127964  0.9614426752010559  0.7496057952568123
  0.2849239105503756  0.2941430471648232  0.7437239415505772
  0.6271706350262392  0.2909034048516759  0.7500663802060572
  0.9603720498162858  0.2889569257261755  0.7489415379802722
  0.2093493406868348  0.3724300717578970  0.2499836481890654
  0.5342475179743005  0.3777300261508643  0.2461329149283671
  0.8768732049808534  0.3751290514634817  0.2520852551084189
  0.2060384367201138  0.7043908782267181  0.2502336773677882
  0.5412481455078790  0.7058303716767966  0.2497700639664515
  0.8729601418369839  0.7062384110322455  0.2497225497070659
  0.2155370971691823  0.0480870482016087  0.2561919494575093
  0.5522172170655821  0.0489020225978649  0.2558588486362652
  0.8762245172910994  0.0382925100879490  0.2481478302032727
  0.2095306452005161  0.3699930899620014  0.5815884599638039
  0.5407406130233028  0.3727046143824495  0.5839304072546625
  0.8760255394907119  0.3690219700129305  0.5821305537407682
  0.2181818388954895  0.7164264133669249  0.5909384036796084
  0.5321541077028868  0.7079762285974240  0.5754954902636342
  0.8643549157710666  0.7098877046656824  0.5788676859637079
  0.2157656865119151  0.0491814135400546  0.5876542245532690
  0.5418060187169331  0.0388912839469882  0.5810615258374838
  0.8729913964032576  0.0396577963878215  0.5821261485858571
  0.2078998617923915  0.3727053804647511  0.9176118013212786
  0.5511510011683143  0.3772450121181095  0.9226066785949456
  0.8746416067876694  0.3727073776912562  0.9167039517406153
  0.1965963312773837  0.7069411214944026  0.9096413951355018
  0.5443704737977129  0.7034300968715854  0.9158513688890011
  0.8844097747394741  0.7170242127560940  0.9247246038186177
  0.1972120995934787  0.0443551128102015  0.9110558413326473
  0.5520100347707384  0.0499398263814399  0.9229029685208729
  0.8745256032980961  0.0425395971346703  0.9165595777265736
  0.0424258944459694  0.5423094556207033  0.2506556619224654
  0.3731205655372847  0.5445239781313234  0.2511552435629554
  0.7078941909858401  0.5446424095365074  0.2512994842898024
  0.0390569551158322  0.8736067072242832  0.2560436208665919
  0.3705953629424101  0.8729054572883257  0.2547789696950105
  0.7083961969597752  0.8767163282343091  0.2489576686759349
  0.0421000569911314  0.2099143471286595  0.2494401449592161
  0.3753572680590551  0.2106093797470834  0.2492906857877628
  0.7162401721535048  0.2049865441895307  0.2456939481138605
  0.0440735821489255  0.5333826668615700  0.5854749906620569
  0.3736228210926882  0.5411866105505396  0.5821424522750718
  0.7106901732588540  0.5332978750436723  0.5771887824643969
  0.0360500980444343  0.8755275266947464  0.5887514726815652
  0.3756027220735803  0.8780966042831437  0.5820184470054244
  0.7054822831666385  0.8788307152417545  0.5823881523169874
  0.0390712423748312  0.2093676208958684  0.5808943910022748
  0.3774578165495512  0.2101288129968495  0.5826137876974258
  0.7075127243248147  0.2071694730072196  0.5819590686245633
  0.0403515132396208  0.5397490518134589  0.9165361718953093
  0.3783553152573020  0.5339521438726464  0.9102318765701582
  0.7080862609214549  0.5412850303536345  0.9232095213282037
  0.0403754075056213  0.8791128984274792  0.9165217382495570
  0.3781795409650286  0.8660790280733082  0.9192678755118209
  0.7066923735700570  0.8758632711019558  0.9151430864237469
  0.0387479105473147  0.2128214603527141  0.9164414875992506
  0.3726018709005885  0.2096881294446007  0.9239976145207294
  0.7115253708213913  0.2125996852919343  0.9172298422479841

  0.00000000E+00  0.00000000E+00  0.00000000E+00
  0.00000000E+00  0.00000000E+00  0.00000000E+00
  0.00000000E+00  0.00000000E+00  0.00000000E+00
  0.00000000E+00  0.00000000E+00  0.00000000E+00
  0.00000000E+00  0.00000000E+00  0.00000000E+00
  0.00000000E+00  0.00000000E+00  0.00000000E+00
  0.00000000E+00  0.00000000E+00  0.00000000E+00
  0.00000000E+00  0.00000000E+00  0.00000000E+00
  0.00000000E+00  0.00000000E+00  0.00000000E+00
  0.00000000E+00  0.00000000E+00  0.00000000E+00
  0.00000000E+00  0.00000000E+00  0.00000000E+00
  0.00000000E+00  0.00000000E+00  0.00000000E+00
  0.00000000E+00  0.00000000E+00  0.00000000E+00
  0.00000000E+00  0.00000000E+00  0.00000000E+00
  0.00000000E+00  0.00000000E+00  0.00000000E+00
  0.00000000E+00  0.00000000E+00  0.00000000E+00
  0.00000000E+00  0.00000000E+00  0.00000000E+00
  0.00000000E+00  0.00000000E+00  0.00000000E+00
  0.00000000E+00  0.00000000E+00  0.00000000E+00
  0.00000000E+00  0.00000000E+00  0.00000000E+00
  0.00000000E+00  0.00000000E+00  0.00000000E+00
  0.00000000E+00  0.00000000E+00  0.00000000E+00
  0.00000000E+00  0.00000000E+00  0.00000000E+00
  0.00000000E+00  0.00000000E+00  0.00000000E+00
  0.00000000E+00  0.00000000E+00  0.00000000E+00
  0.00000000E+00  0.00000000E+00  0.00000000E+00
  0.00000000E+00  0.00000000E+00  0.00000000E+00
  0.00000000E+00  0.00000000E+00  0.00000000E+00
  0.00000000E+00  0.00000000E+00  0.00000000E+00
  0.00000000E+00  0.00000000E+00  0.00000000E+00
  0.00000000E+00  0.00000000E+00  0.00000000E+00
  0.00000000E+00  0.00000000E+00  0.00000000E+00
  0.00000000E+00  0.00000000E+00  0.00000000E+00
  0.00000000E+00  0.00000000E+00  0.00000000E+00
  0.00000000E+00  0.00000000E+00  0.00000000E+00
  0.00000000E+00  0.00000000E+00  0.00000000E+00
  0.00000000E+00  0.00000000E+00  0.00000000E+00
  0.00000000E+00  0.00000000E+00  0.00000000E+00
  0.00000000E+00  0.00000000E+00  0.00000000E+00
  0.00000000E+00  0.00000000E+00  0.00000000E+00
  0.00000000E+00  0.00000000E+00  0.00000000E+00
  0.00000000E+00  0.00000000E+00  0.00000000E+00
  0.00000000E+00  0.00000000E+00  0.00000000E+00
  0.00000000E+00  0.00000000E+00  0.00000000E+00
  0.00000000E+00  0.00000000E+00  0.00000000E+00
  0.00000000E+00  0.00000000E+00  0.00000000E+00
  0.00000000E+00  0.00000000E+00  0.00000000E+00
  0.00000000E+00  0.00000000E+00  0.00000000E+00
  0.00000000E+00  0.00000000E+00  0.00000000E+00
  0.00000000E+00  0.00000000E+00  0.00000000E+00
  0.00000000E+00  0.00000000E+00  0.00000000E+00
  0.00000000E+00  0.00000000E+00  0.00000000E+00
  0.00000000E+00  0.00000000E+00  0.00000000E+00
  0.00000000E+00  0.00000000E+00  0.00000000E+00
  0.00000000E+00  0.00000000E+00  0.00000000E+00
  0.00000000E+00  0.00000000E+00  0.00000000E+00
  0.00000000E+00  0.00000000E+00  0.00000000E+00
  0.00000000E+00  0.00000000E+00  0.00000000E+00
  0.00000000E+00  0.00000000E+00  0.00000000E+00
  0.00000000E+00  0.00000000E+00  0.00000000E+00
  0.00000000E+00  0.00000000E+00  0.00000000E+00
  0.00000000E+00  0.00000000E+00  0.00000000E+00
  0.00000000E+00  0.00000000E+00  0.00000000E+00
  0.00000000E+00  0.00000000E+00  0.00000000E+00
  0.00000000E+00  0.00000000E+00  0.00000000E+00
  0.00000000E+00  0.00000000E+00  0.00000000E+00
  0.00000000E+00  0.00000000E+00  0.00000000E+00
  0.00000000E+00  0.00000000E+00  0.00000000E+00
  0.00000000E+00  0.00000000E+00  0.00000000E+00
  0.00000000E+00  0.00000000E+00  0.00000000E+00
  0.00000000E+00  0.00000000E+00  0.00000000E+00
  0.00000000E+00  0.00000000E+00  0.00000000E+00
  0.00000000E+00  0.00000000E+00  0.00000000E+00
  0.00000000E+00  0.00000000E+00  0.00000000E+00
  0.00000000E+00  0.00000000E+00  0.00000000E+00
  0.00000000E+00  0.00000000E+00  0.00000000E+00
  0.00000000E+00  0.00000000E+00  0.00000000E+00
  0.00000000E+00  0.00000000E+00  0.00000000E+00
  0.00000000E+00  0.00000000E+00  0.00000000E+00
  0.00000000E+00  0.00000000E+00  0.00000000E+00
  0.00000000E+00  0.00000000E+00  0.00000000E+00
  0.00000000E+00  0.00000000E+00  0.00000000E+00
  0.00000000E+00  0.00000000E+00  0.00000000E+00
  0.00000000E+00  0.00000000E+00  0.00000000E+00
  0.00000000E+00  0.00000000E+00  0.00000000E+00
  0.00000000E+00  0.00000000E+00  0.00000000E+00
  0.00000000E+00  0.00000000E+00  0.00000000E+00
  0.00000000E+00  0.00000000E+00  0.00000000E+00
  0.00000000E+00  0.00000000E+00  0.00000000E+00
  0.00000000E+00  0.00000000E+00  0.00000000E+00
  0.00000000E+00  0.00000000E+00  0.00000000E+00
  0.00000000E+00  0.00000000E+00  0.00000000E+00
  0.00000000E+00  0.00000000E+00  0.00000000E+00
  0.00000000E+00  0.00000000E+00  0.00000000E+00
  0.00000000E+00  0.00000000E+00  0.00000000E+00
  0.00000000E+00  0.00000000E+00  0.00000000E+00
  0.00000000E+00  0.00000000E+00  0.00000000E+00
  0.00000000E+00  0.00000000E+00  0.00000000E+00
  0.00000000E+00  0.00000000E+00  0.00000000E+00
  0.00000000E+00  0.00000000E+00  0.00000000E+00
  0.00000000E+00  0.00000000E+00  0.00000000E+00
  0.00000000E+00  0.00000000E+00  0.00000000E+00
  0.00000000E+00  0.00000000E+00  0.00000000E+00
  0.00000000E+00  0.00000000E+00  0.00000000E+00
  0.00000000E+00  0.00000000E+00  0.00000000E+00
  0.00000000E+00  0.00000000E+00  0.00000000E+00
  0.00000000E+00  0.00000000E+00  0.00000000E+00
  0.00000000E+00  0.00000000E+00  0.00000000E+00
  0.00000000E+00  0.00000000E+00  0.00000000E+00
  0.00000000E+00  0.00000000E+00  0.00000000E+00
  0.00000000E+00  0.00000000E+00  0.00000000E+00
  0.00000000E+00  0.00000000E+00  0.00000000E+00
  0.00000000E+00  0.00000000E+00  0.00000000E+00
  0.00000000E+00  0.00000000E+00  0.00000000E+00
  0.00000000E+00  0.00000000E+00  0.00000000E+00
  0.00000000E+00  0.00000000E+00  0.00000000E+00
  0.00000000E+00  0.00000000E+00  0.00000000E+00
  0.00000000E+00  0.00000000E+00  0.00000000E+00
  0.00000000E+00  0.00000000E+00  0.00000000E+00
  0.00000000E+00  0.00000000E+00  0.00000000E+00
  0.00000000E+00  0.00000000E+00  0.00000000E+00
  0.00000000E+00  0.00000000E+00  0.00000000E+00
  0.00000000E+00  0.00000000E+00  0.00000000E+00
  0.00000000E+00  0.00000000E+00  0.00000000E+00
  0.00000000E+00  0.00000000E+00  0.00000000E+00
  0.00000000E+00  0.00000000E+00  0.00000000E+00
  0.00000000E+00  0.00000000E+00  0.00000000E+00
  0.00000000E+00  0.00000000E+00  0.00000000E+00
  0.00000000E+00  0.00000000E+00  0.00000000E+00
  0.00000000E+00  0.00000000E+00  0.00000000E+00
  0.00000000E+00  0.00000000E+00  0.00000000E+00
  0.00000000E+00  0.00000000E+00  0.00000000E+00
  0.00000000E+00  0.00000000E+00  0.00000000E+00
  0.00000000E+00  0.00000000E+00  0.00000000E+00
  0.00000000E+00  0.00000000E+00  0.00000000E+00
  0.00000000E+00  0.00000000E+00  0.00000000E+00
  0.00000000E+00  0.00000000E+00  0.00000000E+00
  0.00000000E+00  0.00000000E+00  0.00000000E+00
  0.00000000E+00  0.00000000E+00  0.00000000E+00
  0.00000000E+00  0.00000000E+00  0.00000000E+00
  0.00000000E+00  0.00000000E+00  0.00000000E+00
  0.00000000E+00  0.00000000E+00  0.00000000E+00
  0.00000000E+00  0.00000000E+00  0.00000000E+00
  0.00000000E+00  0.00000000E+00  0.00000000E+00
  0.00000000E+00  0.00000000E+00  0.00000000E+00
  0.00000000E+00  0.00000000E+00  0.00000000E+00
  0.00000000E+00  0.00000000E+00  0.00000000E+00
  0.00000000E+00  0.00000000E+00  0.00000000E+00
  0.00000000E+00  0.00000000E+00  0.00000000E+00
  0.00000000E+00  0.00000000E+00  0.00000000E+00
  0.00000000E+00  0.00000000E+00  0.00000000E+00
  0.00000000E+00  0.00000000E+00  0.00000000E+00
  0.00000000E+00  0.00000000E+00  0.00000000E+00
  0.00000000E+00  0.00000000E+00  0.00000000E+00
  0.00000000E+00  0.00000000E+00  0.00000000E+00
  0.00000000E+00  0.00000000E+00  0.00000000E+00
  0.00000000E+00  0.00000000E+00  0.00000000E+00
  0.00000000E+00  0.00000000E+00  0.00000000E+00
  0.00000000E+00  0.00000000E+00  0.00000000E+00
  0.00000000E+00  0.00000000E+00  0.00000000E+00
  0.00000000E+00  0.00000000E+00  0.00000000E+00
  0.00000000E+00  0.00000000E+00  0.00000000E+00
  0.00000000E+00  0.00000000E+00  0.00000000E+00
  0.00000000E+00  0.00000000E+00  0.00000000E+00
  0.00000000E+00  0.00000000E+00  0.00000000E+00
  0.00000000E+00  0.00000000E+00  0.00000000E+00
  0.00000000E+00  0.00000000E+00  0.00000000E+00
  0.00000000E+00  0.00000000E+00  0.00000000E+00
  0.00000000E+00  0.00000000E+00  0.00000000E+00
  0.00000000E+00  0.00000000E+00  0.00000000E+00
  0.00000000E+00  0.00000000E+00  0.00000000E+00
  0.00000000E+00  0.00000000E+00  0.00000000E+00
  0.00000000E+00  0.00000000E+00  0.00000000E+00
  0.00000000E+00  0.00000000E+00  0.00000000E+00
  0.00000000E+00  0.00000000E+00  0.00000000E+00
  0.00000000E+00  0.00000000E+00  0.00000000E+00
  0.00000000E+00  0.00000000E+00  0.00000000E+00
  0.00000000E+00  0.00000000E+00  0.00000000E+00
  0.00000000E+00  0.00000000E+00  0.00000000E+00
  0.00000000E+00  0.00000000E+00  0.00000000E+00
  0.00000000E+00  0.00000000E+00  0.00000000E+00
  0.00000000E+00  0.00000000E+00  0.00000000E+00
  0.00000000E+00  0.00000000E+00  0.00000000E+00
  0.00000000E+00  0.00000000E+00  0.00000000E+00
  0.00000000E+00  0.00000000E+00  0.00000000E+00
  0.00000000E+00  0.00000000E+00  0.00000000E+00
  0.00000000E+00  0.00000000E+00  0.00000000E+00
  0.00000000E+00  0.00000000E+00  0.00000000E+00
  0.00000000E+00  0.00000000E+00  0.00000000E+00
  0.00000000E+00  0.00000000E+00  0.00000000E+00
  0.00000000E+00  0.00000000E+00  0.00000000E+00
  0.00000000E+00  0.00000000E+00  0.00000000E+00
  0.00000000E+00  0.00000000E+00  0.00000000E+00
  0.00000000E+00  0.00000000E+00  0.00000000E+00
  0.00000000E+00  0.00000000E+00  0.00000000E+00
  0.00000000E+00  0.00000000E+00  0.00000000E+00
  0.00000000E+00  0.00000000E+00  0.00000000E+00
  0.00000000E+00  0.00000000E+00  0.00000000E+00
  0.00000000E+00  0.00000000E+00  0.00000000E+00
  0.00000000E+00  0.00000000E+00  0.00000000E+00
  0.00000000E+00  0.00000000E+00  0.00000000E+00
  0.00000000E+00  0.00000000E+00  0.00000000E+00
  0.00000000E+00  0.00000000E+00  0.00000000E+00
  0.00000000E+00  0.00000000E+00  0.00000000E+00
  0.00000000E+00  0.00000000E+00  0.00000000E+00
  0.00000000E+00  0.00000000E+00  0.00000000E+00
  0.00000000E+00  0.00000000E+00  0.00000000E+00
  0.00000000E+00  0.00000000E+00  0.00000000E+00
  0.00000000E+00  0.00000000E+00  0.00000000E+00
  0.00000000E+00  0.00000000E+00  0.00000000E+00
  0.00000000E+00  0.00000000E+00  0.00000000E+00
  0.00000000E+00  0.00000000E+00  0.00000000E+00
  0.00000000E+00  0.00000000E+00  0.00000000E+00
  0.00000000E+00  0.00000000E+00  0.00000000E+00
  0.00000000E+00  0.00000000E+00  0.00000000E+00
  0.00000000E+00  0.00000000E+00  0.00000000E+00
