In30 Ga24 Cu18 Ag36 Se108               
   1.0000000000000000     
    16.3801355110947107   -0.0569527070508515   -7.4934784799257343
    -3.2916079836927099   16.0712662218570692   -7.2973343427630368
     0.0378119075057345   -0.1796144392772434   21.7380939439195906
   In   Ga   Cu   Ag   Se
    30    24    18    36   108
Direct
  0.1625715851873082  0.5022653592637525  0.9967903101488247
  0.5040039476845948  0.4999029551500342  0.0029483239493189
  0.1640225811541711  0.8340367129994632  0.9993641171873335
  0.1673036078261632  0.1607556366433940  0.0022823177572988
  0.5045092602130339  0.1687949885750371  0.0001694011960964
  0.8307398971627009  0.1673633923246953  0.0004890030187923
  0.1606805747425000  0.4971694517360206  0.3314372359020723
  0.5060195964716172  0.4979594715294766  0.3305026020456694
  0.8342393008791689  0.5030220779833314  0.3334462534821299
  0.1625693979894436  0.8362216917773750  0.3292358673253233
  0.8276078636196118  0.8329777778614655  0.3281076566781991
  0.5007755039724984  0.5000354717209561  0.6695227701989808
  0.1667597238286760  0.8343070204297760  0.6678158206498850
  0.5004981740571282  0.8345411710122903  0.6705524249651731
  0.1652304763496204  0.1674308170782837  0.6670119526362157
  0.5046569303263837  0.1668396050461709  0.6681997142355769
  0.8320101783186615  0.1706216179449385  0.6705894184373022
  0.2495390296938922  0.4165790246572314  0.1659427317324926
  0.5836261842341202  0.0778882010072124  0.1660539618233727
  0.9158040893504520  0.0768850793107561  0.1677742564881015
  0.5858915413857915  0.4083644818231704  0.5008470855588030
  0.2472997313794068  0.7480201973494758  0.4987990378464957
  0.5917220326029238  0.7537920431235747  0.4999484105996714
  0.9137532851830557  0.7576340550658998  0.5006497506243974
  0.5854798548202567  0.0848032546965740  0.4966439229236883
  0.9108938547709613  0.0852195081160119  0.5000945504970105
  0.5916671765072081  0.4155042908497322  0.8353627280586053
  0.2515692390327757  0.7478556395058575  0.8327946794151799
  0.2477620978198374  0.0851559124976191  0.8337206900437053
  0.9180273520219941  0.0854823368634996  0.8349686072899161
  0.8320643310971718  0.5012894762917171  0.9997785204582144
  0.5027633548507637  0.8352095736011051  0.9992324234533996
  0.8339031684768514  0.8310021782853312  0.9969265815901025
  0.5052023457315116  0.8382422413184756  0.3312132906481082
  0.1707169330153206  0.1630556782551267  0.3343717945873337
  0.4974469775759047  0.1572403715879318  0.3295907554174988
  0.8269344137377814  0.1663431039652323  0.3356609987470875
  0.1679695956799065  0.4963102800962673  0.6629011636644151
  0.8286453398402145  0.4981443346558052  0.6684421108837739
  0.8390919603274369  0.8367194705074397  0.6675606527555757
  0.5870193698837767  0.4197745066450835  0.1670239748053390
  0.9131221845569470  0.4191027826774558  0.1637537518981702
  0.2512029660280390  0.7551810859863792  0.1695396415344561
  0.5841533234218446  0.7563698463400073  0.1671091189812728
  0.9157591959536617  0.7493910122013077  0.1614665133470297
  0.2495433640863851  0.0773595113936310  0.1675514437639691
  0.2480507140827370  0.4151148933091378  0.4999419551855055
  0.9130795056345065  0.4118099469827925  0.5030962556970167
  0.2526949955645179  0.0850002725666528  0.4978415602136721
  0.2523104607989453  0.4129089761756077  0.8319448908186473
  0.9103320259249017  0.4177692555189267  0.8347064573001219
  0.5858050206320584  0.7485848784371925  0.8373863362639256
  0.9097742900776851  0.7488056397316427  0.8297163465632735
  0.5869268789762643  0.0902435658062686  0.8370715315385553
  0.6696248633290693  0.3330803344506705  0.9994922741134786
  0.0005471385590141  0.9921607083488624  0.0030417303642452
  0.3364029477302850  0.9977929883782224  0.0023414117778771
  0.6654271726315955  0.9929746247098663  0.9927575215365678
  0.9933511166279700  0.6663511909643773  0.3266033712128404
  0.6626537673232491  0.6710809724706053  0.3276113577908148
  0.3275819316765975  0.9980575011938839  0.3266214642753269
  0.6666360845590518  0.0011830127413219  0.3358796635921024
  0.6748095557386122  0.3359112032608209  0.6702447811798109
  0.3356138524244088  0.6604189929398885  0.6649467386099985
  0.9949869709905172  0.0046355912507039  0.6661738545013876
  0.0836918737547805  0.9198455101463665  0.1652737899091363
  0.7499501957844146  0.9164160492564406  0.4974632860162842
  0.7473742577213116  0.2484343727036560  0.4975761612851244
  0.7545346740071608  0.5803591056522919  0.8343029731332265
  0.0836893446250002  0.2515491112684884  0.8320565740377504
  0.4249627421838795  0.2554103434334181  0.8388164873156754
  0.7484508293274885  0.2583364135518025  0.8393062146950356
  0.9912583913429600  0.3280490652290595  0.9939061882862035
  0.3299423036432287  0.3350426020400548  0.9957687831335633
  0.9968567259367376  0.6770558946502447  0.0012293013237397
  0.3376476190541240  0.6733636785801025  0.0017029125936432
  0.6666675425313642  0.6708909432955110  0.9995737952952055
  0.9972626875841613  0.3306650675098268  0.3366766013438323
  0.3351539848490503  0.3278618931487713  0.3338782714557809
  0.6727448291757980  0.3338392461891218  0.3397635715285929
  0.3381252981581184  0.6758662084739484  0.3343794675117877
  0.0031126049247518  0.9978193583313413  0.3318104146488920
  0.9923448927345575  0.3437477085903780  0.6727459962327842
  0.3275263881288097  0.3288413290732279  0.6669064732872911
  0.9983982294552476  0.6575894011023280  0.6675984965953248
  0.6697370482634142  0.6708023116393775  0.6764844754599224
  0.3379233571271740  0.0088458079521487  0.6696964931007798
  0.6748662039142133  0.9993409682859209  0.6713463560329203
  0.0792015122197398  0.5846957495272065  0.1671159865676302
  0.4192445683138217  0.5920549727383602  0.1675254241679980
  0.7533077676687085  0.5803777417292793  0.1656325035192552
  0.4123479768337646  0.9143763590767620  0.1666765815349223
  0.7465483116268956  0.9155982767624025  0.1618447710252298
  0.0801859450682656  0.2399633611188605  0.1649630751308280
  0.4199215771812490  0.2461131387871376  0.1697816882588938
  0.7500671246651507  0.2479780096994375  0.1630531691643071
  0.0781417812553755  0.5858239093996005  0.5038807182863891
  0.4165830582935044  0.5822922718889245  0.5005292017709593
  0.7493807409575979  0.5861239366571098  0.5047517964999102
  0.0864932469787618  0.9146423358897593  0.4994904182895752
  0.4117095592138611  0.9174198969084699  0.4930456648326569
  0.0815357161456802  0.2470292588772978  0.4958258292497177
  0.4179780668561577  0.2464123051066380  0.4957212662638142
  0.0763031883073779  0.5681648766556009  0.8231131832078447
  0.4098594824979287  0.5834217154395915  0.8326223529249361
  0.0781671979932739  0.9192627237467121  0.8355183413074627
  0.4251925503225706  0.9132827115402904  0.8375921037825549
  0.7543907132484975  0.9198151376414856  0.8398671169008338
  0.1211356064205162  0.4570803221599320  0.0806998440270235
  0.4645483487593012  0.4582881668075984  0.0900068010803636
  0.7911447702117371  0.4507906030599713  0.0753712196428395
  0.1307630173342815  0.8005280828354771  0.0943986830837886
  0.4686715444386849  0.7961927513686646  0.0831559588314903
  0.8008005246349654  0.7938707326614391  0.0818756734484296
  0.1234803732717182  0.1086624226493953  0.0834173660936486
  0.4543044345403544  0.1162436944264726  0.0772862592137074
  0.7837408703396136  0.1118473907205484  0.0770399513396356
  0.1285942024757603  0.4567958327989103  0.4232247633023292
  0.4632079586303917  0.4559228260433272  0.4162673716054783
  0.8021555788356025  0.4608945404921130  0.4253231146536791
  0.1154861514531973  0.7819236744476825  0.4070586742268034
  0.4684501796077640  0.7990721821406197  0.4124110273527108
  0.7793246850853564  0.7925062475788494  0.4127425460308061
  0.1340716752165534  0.1235358214711866  0.4158613777670084
  0.4504237105505453  0.1139160761754283  0.4035919319369441
  0.7800875693896430  0.1266644298039026  0.4134445720236428
  0.1377486053530603  0.4532590219277566  0.7461939422482757
  0.4592380762002932  0.4551776743037479  0.7534073831070032
  0.7899949562928654  0.4584045123343330  0.7513163326215349
  0.1221076668965111  0.7902114422825335  0.7506152878127921
  0.4596214251098516  0.7764550216230077  0.7497927495129630
  0.7999745294819647  0.7972028355514880  0.7491451406653482
  0.1125650068166451  0.1253783200245806  0.7492082809625273
  0.4671362768020373  0.1357450111956311  0.7626174979415907
  0.7899221953654418  0.1391322802297381  0.7621884589848094
  0.2875435161983688  0.6354969125224486  0.0864830262930028
  0.6256391049033212  0.6357040629760746  0.0897398038782597
  0.9489228240163143  0.6245310028967594  0.0805605221867438
  0.2913516386289530  0.9645906207687958  0.0821500262479660
  0.6211792777392589  0.9542426808246347  0.0701582805517162
  0.9597170215969371  0.9488599179439561  0.0788964331116091
  0.2937181361559809  0.2891825622630009  0.0831646312450331
  0.6289144230957291  0.3037079779931346  0.0837684135553829
  0.9568028607060199  0.2979770805402993  0.0897868904625270
  0.2901207760280258  0.6233595969440699  0.4118564731447805
  0.6318558155005221  0.6282211592052249  0.4093343038975092
  0.9606861531426105  0.6341060952585806  0.4129628643630667
  0.2890951962709423  0.9675375555939141  0.4118078242259102
  0.6319445435993103  0.9547948771404435  0.4138324309592889
  0.9561696011273284  0.9590985482799752  0.4168054450795111
  0.2838437034957408  0.2909646987164862  0.4180056339832205
  0.6211858480800743  0.2755523763218974  0.4127666985664078
  0.9444977917733439  0.2886935502874195  0.4180037797079308
  0.2852716401058046  0.6191448871142100  0.7373924501114786
  0.6320427721842918  0.6275927440727997  0.7640819536214281
  0.9452380501498894  0.6218388221207505  0.7507950207052971
  0.2965024424078138  0.9597143750703054  0.7526103405686300
  0.6250872994276619  0.9676519720722183  0.7584507124769218
  0.9558669285385974  0.9590206350592396  0.7422040961365468
  0.2995562869530062  0.2918465602425755  0.7617509067075190
  0.6376919109136523  0.2915824301327561  0.7484128888223722
  0.9615199406252941  0.2996538867712673  0.7634005346572721
  0.2061678696190228  0.3707519757230884  0.2484600097124030
  0.5498943302117709  0.3722547234306148  0.2441477490828134
  0.8772544976457439  0.3779372690880791  0.2448085246576071
  0.2086222083770579  0.7111116620648232  0.2446364736594830
  0.5481680593853184  0.7193545660459861  0.2513404255384160
  0.8816321661366189  0.7109972271187104  0.2459320199041173
  0.2067362982141816  0.0381475881430049  0.2486633127086080
  0.5461531033717932  0.0396552347046821  0.2570284912328233
  0.8709227438833125  0.0478270928752096  0.2588457490832354
  0.2077231424298702  0.3789347232842886  0.5813171774521635
  0.5501785315863827  0.3701444989177531  0.5916948986604922
  0.8613663242547673  0.3752250599916493  0.5796684340553853
  0.2166387756200550  0.7052003047367421  0.5900026737010506
  0.5458402176286725  0.7104447218240253  0.5836499643537252
  0.8770844575526269  0.7157987046976899  0.5894482079273331
  0.2111542666949902  0.0453845365052885  0.5769594548812407
  0.5463146585079244  0.0397818363098068  0.5823030385880159
  0.8702185286243633  0.0352559489965785  0.5838669277226956
  0.2008007090807382  0.3722454835997553  0.9056518890802323
  0.5482285124256876  0.3689615312967689  0.9196373948912537
  0.8656584032351020  0.3792604000988504  0.9139017810478194
  0.2017707673169440  0.7029791176477929  0.9127608531175255
  0.5375086148593624  0.7141506950924565  0.9155418327441041
  0.8642627422563507  0.7092220660965651  0.9079933103344544
  0.2177025381710465  0.0354530352853217  0.9218070361596702
  0.5548460080415438  0.0435891110482771  0.9173164164792098
  0.8893192261780243  0.0430527452909359  0.9275805413004292
  0.0294436721139917  0.5427575329739440  0.2492422392491562
  0.3774331506981454  0.5429832157699934  0.2502161864465151
  0.7010382460047140  0.5464629387119260  0.2512013214658353
  0.0347462847619227  0.8707647788071355  0.2352755730215534
  0.3737751582895967  0.8751269130331849  0.2557904432004463
  0.6987005826090851  0.8809283792914897  0.2486383448818401
  0.0475807272545339  0.2018831188342105  0.2575694199501513
  0.3743481909357911  0.1944414304184576  0.2492314720525428
  0.7128804671461211  0.2048624733764228  0.2515788119928146
  0.0385449359949845  0.5267461518770773  0.5833592670605086
  0.3676671470584267  0.5377181343423842  0.5818607092051877
  0.7111904180644686  0.5393239520131274  0.5900313231990211
  0.0406725818209424  0.8880349822358937  0.5905360919420986
  0.3749692892230883  0.8762803245168769  0.5820102102677467
  0.7231484331803060  0.8792481940613541  0.5852961953779428
  0.0379365871030544  0.2141227793878429  0.5860531327046630
  0.3720046687761212  0.2031612672005281  0.5801901832417542
  0.7100388413712508  0.2197437127621384  0.5832672897155149
  0.0280872393780101  0.5387144654573532  0.9121268526859865
  0.3692614657320803  0.5341721368175101  0.9156477177361850
  0.7186446481469204  0.5455564662959063  0.9185733496530233
  0.0283952802055651  0.8713181351491954  0.9149820266648021
  0.3792741736985619  0.8784997775100933  0.9268687249185348
  0.7066952274670868  0.8706306418148344  0.9205183560408727
  0.0489871914388047  0.2105219530279427  0.9136376599702913
  0.3788375634963543  0.2111729608091863  0.9114936065422583
  0.7047003878338813  0.2144614910581026  0.9145641892571916

  0.00000000E+00  0.00000000E+00  0.00000000E+00
  0.00000000E+00  0.00000000E+00  0.00000000E+00
  0.00000000E+00  0.00000000E+00  0.00000000E+00
  0.00000000E+00  0.00000000E+00  0.00000000E+00
  0.00000000E+00  0.00000000E+00  0.00000000E+00
  0.00000000E+00  0.00000000E+00  0.00000000E+00
  0.00000000E+00  0.00000000E+00  0.00000000E+00
  0.00000000E+00  0.00000000E+00  0.00000000E+00
  0.00000000E+00  0.00000000E+00  0.00000000E+00
  0.00000000E+00  0.00000000E+00  0.00000000E+00
  0.00000000E+00  0.00000000E+00  0.00000000E+00
  0.00000000E+00  0.00000000E+00  0.00000000E+00
  0.00000000E+00  0.00000000E+00  0.00000000E+00
  0.00000000E+00  0.00000000E+00  0.00000000E+00
  0.00000000E+00  0.00000000E+00  0.00000000E+00
  0.00000000E+00  0.00000000E+00  0.00000000E+00
  0.00000000E+00  0.00000000E+00  0.00000000E+00
  0.00000000E+00  0.00000000E+00  0.00000000E+00
  0.00000000E+00  0.00000000E+00  0.00000000E+00
  0.00000000E+00  0.00000000E+00  0.00000000E+00
  0.00000000E+00  0.00000000E+00  0.00000000E+00
  0.00000000E+00  0.00000000E+00  0.00000000E+00
  0.00000000E+00  0.00000000E+00  0.00000000E+00
  0.00000000E+00  0.00000000E+00  0.00000000E+00
  0.00000000E+00  0.00000000E+00  0.00000000E+00
  0.00000000E+00  0.00000000E+00  0.00000000E+00
  0.00000000E+00  0.00000000E+00  0.00000000E+00
  0.00000000E+00  0.00000000E+00  0.00000000E+00
  0.00000000E+00  0.00000000E+00  0.00000000E+00
  0.00000000E+00  0.00000000E+00  0.00000000E+00
  0.00000000E+00  0.00000000E+00  0.00000000E+00
  0.00000000E+00  0.00000000E+00  0.00000000E+00
  0.00000000E+00  0.00000000E+00  0.00000000E+00
  0.00000000E+00  0.00000000E+00  0.00000000E+00
  0.00000000E+00  0.00000000E+00  0.00000000E+00
  0.00000000E+00  0.00000000E+00  0.00000000E+00
  0.00000000E+00  0.00000000E+00  0.00000000E+00
  0.00000000E+00  0.00000000E+00  0.00000000E+00
  0.00000000E+00  0.00000000E+00  0.00000000E+00
  0.00000000E+00  0.00000000E+00  0.00000000E+00
  0.00000000E+00  0.00000000E+00  0.00000000E+00
  0.00000000E+00  0.00000000E+00  0.00000000E+00
  0.00000000E+00  0.00000000E+00  0.00000000E+00
  0.00000000E+00  0.00000000E+00  0.00000000E+00
  0.00000000E+00  0.00000000E+00  0.00000000E+00
  0.00000000E+00  0.00000000E+00  0.00000000E+00
  0.00000000E+00  0.00000000E+00  0.00000000E+00
  0.00000000E+00  0.00000000E+00  0.00000000E+00
  0.00000000E+00  0.00000000E+00  0.00000000E+00
  0.00000000E+00  0.00000000E+00  0.00000000E+00
  0.00000000E+00  0.00000000E+00  0.00000000E+00
  0.00000000E+00  0.00000000E+00  0.00000000E+00
  0.00000000E+00  0.00000000E+00  0.00000000E+00
  0.00000000E+00  0.00000000E+00  0.00000000E+00
  0.00000000E+00  0.00000000E+00  0.00000000E+00
  0.00000000E+00  0.00000000E+00  0.00000000E+00
  0.00000000E+00  0.00000000E+00  0.00000000E+00
  0.00000000E+00  0.00000000E+00  0.00000000E+00
  0.00000000E+00  0.00000000E+00  0.00000000E+00
  0.00000000E+00  0.00000000E+00  0.00000000E+00
  0.00000000E+00  0.00000000E+00  0.00000000E+00
  0.00000000E+00  0.00000000E+00  0.00000000E+00
  0.00000000E+00  0.00000000E+00  0.00000000E+00
  0.00000000E+00  0.00000000E+00  0.00000000E+00
  0.00000000E+00  0.00000000E+00  0.00000000E+00
  0.00000000E+00  0.00000000E+00  0.00000000E+00
  0.00000000E+00  0.00000000E+00  0.00000000E+00
  0.00000000E+00  0.00000000E+00  0.00000000E+00
  0.00000000E+00  0.00000000E+00  0.00000000E+00
  0.00000000E+00  0.00000000E+00  0.00000000E+00
  0.00000000E+00  0.00000000E+00  0.00000000E+00
  0.00000000E+00  0.00000000E+00  0.00000000E+00
  0.00000000E+00  0.00000000E+00  0.00000000E+00
  0.00000000E+00  0.00000000E+00  0.00000000E+00
  0.00000000E+00  0.00000000E+00  0.00000000E+00
  0.00000000E+00  0.00000000E+00  0.00000000E+00
  0.00000000E+00  0.00000000E+00  0.00000000E+00
  0.00000000E+00  0.00000000E+00  0.00000000E+00
  0.00000000E+00  0.00000000E+00  0.00000000E+00
  0.00000000E+00  0.00000000E+00  0.00000000E+00
  0.00000000E+00  0.00000000E+00  0.00000000E+00
  0.00000000E+00  0.00000000E+00  0.00000000E+00
  0.00000000E+00  0.00000000E+00  0.00000000E+00
  0.00000000E+00  0.00000000E+00  0.00000000E+00
  0.00000000E+00  0.00000000E+00  0.00000000E+00
  0.00000000E+00  0.00000000E+00  0.00000000E+00
  0.00000000E+00  0.00000000E+00  0.00000000E+00
  0.00000000E+00  0.00000000E+00  0.00000000E+00
  0.00000000E+00  0.00000000E+00  0.00000000E+00
  0.00000000E+00  0.00000000E+00  0.00000000E+00
  0.00000000E+00  0.00000000E+00  0.00000000E+00
  0.00000000E+00  0.00000000E+00  0.00000000E+00
  0.00000000E+00  0.00000000E+00  0.00000000E+00
  0.00000000E+00  0.00000000E+00  0.00000000E+00
  0.00000000E+00  0.00000000E+00  0.00000000E+00
  0.00000000E+00  0.00000000E+00  0.00000000E+00
  0.00000000E+00  0.00000000E+00  0.00000000E+00
  0.00000000E+00  0.00000000E+00  0.00000000E+00
  0.00000000E+00  0.00000000E+00  0.00000000E+00
  0.00000000E+00  0.00000000E+00  0.00000000E+00
  0.00000000E+00  0.00000000E+00  0.00000000E+00
  0.00000000E+00  0.00000000E+00  0.00000000E+00
  0.00000000E+00  0.00000000E+00  0.00000000E+00
  0.00000000E+00  0.00000000E+00  0.00000000E+00
  0.00000000E+00  0.00000000E+00  0.00000000E+00
  0.00000000E+00  0.00000000E+00  0.00000000E+00
  0.00000000E+00  0.00000000E+00  0.00000000E+00
  0.00000000E+00  0.00000000E+00  0.00000000E+00
  0.00000000E+00  0.00000000E+00  0.00000000E+00
  0.00000000E+00  0.00000000E+00  0.00000000E+00
  0.00000000E+00  0.00000000E+00  0.00000000E+00
  0.00000000E+00  0.00000000E+00  0.00000000E+00
  0.00000000E+00  0.00000000E+00  0.00000000E+00
  0.00000000E+00  0.00000000E+00  0.00000000E+00
  0.00000000E+00  0.00000000E+00  0.00000000E+00
  0.00000000E+00  0.00000000E+00  0.00000000E+00
  0.00000000E+00  0.00000000E+00  0.00000000E+00
  0.00000000E+00  0.00000000E+00  0.00000000E+00
  0.00000000E+00  0.00000000E+00  0.00000000E+00
  0.00000000E+00  0.00000000E+00  0.00000000E+00
  0.00000000E+00  0.00000000E+00  0.00000000E+00
  0.00000000E+00  0.00000000E+00  0.00000000E+00
  0.00000000E+00  0.00000000E+00  0.00000000E+00
  0.00000000E+00  0.00000000E+00  0.00000000E+00
  0.00000000E+00  0.00000000E+00  0.00000000E+00
  0.00000000E+00  0.00000000E+00  0.00000000E+00
  0.00000000E+00  0.00000000E+00  0.00000000E+00
  0.00000000E+00  0.00000000E+00  0.00000000E+00
  0.00000000E+00  0.00000000E+00  0.00000000E+00
  0.00000000E+00  0.00000000E+00  0.00000000E+00
  0.00000000E+00  0.00000000E+00  0.00000000E+00
  0.00000000E+00  0.00000000E+00  0.00000000E+00
  0.00000000E+00  0.00000000E+00  0.00000000E+00
  0.00000000E+00  0.00000000E+00  0.00000000E+00
  0.00000000E+00  0.00000000E+00  0.00000000E+00
  0.00000000E+00  0.00000000E+00  0.00000000E+00
  0.00000000E+00  0.00000000E+00  0.00000000E+00
  0.00000000E+00  0.00000000E+00  0.00000000E+00
  0.00000000E+00  0.00000000E+00  0.00000000E+00
  0.00000000E+00  0.00000000E+00  0.00000000E+00
  0.00000000E+00  0.00000000E+00  0.00000000E+00
  0.00000000E+00  0.00000000E+00  0.00000000E+00
  0.00000000E+00  0.00000000E+00  0.00000000E+00
  0.00000000E+00  0.00000000E+00  0.00000000E+00
  0.00000000E+00  0.00000000E+00  0.00000000E+00
  0.00000000E+00  0.00000000E+00  0.00000000E+00
  0.00000000E+00  0.00000000E+00  0.00000000E+00
  0.00000000E+00  0.00000000E+00  0.00000000E+00
  0.00000000E+00  0.00000000E+00  0.00000000E+00
  0.00000000E+00  0.00000000E+00  0.00000000E+00
  0.00000000E+00  0.00000000E+00  0.00000000E+00
  0.00000000E+00  0.00000000E+00  0.00000000E+00
  0.00000000E+00  0.00000000E+00  0.00000000E+00
  0.00000000E+00  0.00000000E+00  0.00000000E+00
  0.00000000E+00  0.00000000E+00  0.00000000E+00
  0.00000000E+00  0.00000000E+00  0.00000000E+00
  0.00000000E+00  0.00000000E+00  0.00000000E+00
  0.00000000E+00  0.00000000E+00  0.00000000E+00
  0.00000000E+00  0.00000000E+00  0.00000000E+00
  0.00000000E+00  0.00000000E+00  0.00000000E+00
  0.00000000E+00  0.00000000E+00  0.00000000E+00
  0.00000000E+00  0.00000000E+00  0.00000000E+00
  0.00000000E+00  0.00000000E+00  0.00000000E+00
  0.00000000E+00  0.00000000E+00  0.00000000E+00
  0.00000000E+00  0.00000000E+00  0.00000000E+00
  0.00000000E+00  0.00000000E+00  0.00000000E+00
  0.00000000E+00  0.00000000E+00  0.00000000E+00
  0.00000000E+00  0.00000000E+00  0.00000000E+00
  0.00000000E+00  0.00000000E+00  0.00000000E+00
  0.00000000E+00  0.00000000E+00  0.00000000E+00
  0.00000000E+00  0.00000000E+00  0.00000000E+00
  0.00000000E+00  0.00000000E+00  0.00000000E+00
  0.00000000E+00  0.00000000E+00  0.00000000E+00
  0.00000000E+00  0.00000000E+00  0.00000000E+00
  0.00000000E+00  0.00000000E+00  0.00000000E+00
  0.00000000E+00  0.00000000E+00  0.00000000E+00
  0.00000000E+00  0.00000000E+00  0.00000000E+00
  0.00000000E+00  0.00000000E+00  0.00000000E+00
  0.00000000E+00  0.00000000E+00  0.00000000E+00
  0.00000000E+00  0.00000000E+00  0.00000000E+00
  0.00000000E+00  0.00000000E+00  0.00000000E+00
  0.00000000E+00  0.00000000E+00  0.00000000E+00
  0.00000000E+00  0.00000000E+00  0.00000000E+00
  0.00000000E+00  0.00000000E+00  0.00000000E+00
  0.00000000E+00  0.00000000E+00  0.00000000E+00
  0.00000000E+00  0.00000000E+00  0.00000000E+00
  0.00000000E+00  0.00000000E+00  0.00000000E+00
  0.00000000E+00  0.00000000E+00  0.00000000E+00
  0.00000000E+00  0.00000000E+00  0.00000000E+00
  0.00000000E+00  0.00000000E+00  0.00000000E+00
  0.00000000E+00  0.00000000E+00  0.00000000E+00
  0.00000000E+00  0.00000000E+00  0.00000000E+00
  0.00000000E+00  0.00000000E+00  0.00000000E+00
  0.00000000E+00  0.00000000E+00  0.00000000E+00
  0.00000000E+00  0.00000000E+00  0.00000000E+00
  0.00000000E+00  0.00000000E+00  0.00000000E+00
  0.00000000E+00  0.00000000E+00  0.00000000E+00
  0.00000000E+00  0.00000000E+00  0.00000000E+00
  0.00000000E+00  0.00000000E+00  0.00000000E+00
  0.00000000E+00  0.00000000E+00  0.00000000E+00
  0.00000000E+00  0.00000000E+00  0.00000000E+00
  0.00000000E+00  0.00000000E+00  0.00000000E+00
  0.00000000E+00  0.00000000E+00  0.00000000E+00
  0.00000000E+00  0.00000000E+00  0.00000000E+00
  0.00000000E+00  0.00000000E+00  0.00000000E+00
  0.00000000E+00  0.00000000E+00  0.00000000E+00
  0.00000000E+00  0.00000000E+00  0.00000000E+00
  0.00000000E+00  0.00000000E+00  0.00000000E+00
  0.00000000E+00  0.00000000E+00  0.00000000E+00
  0.00000000E+00  0.00000000E+00  0.00000000E+00
  0.00000000E+00  0.00000000E+00  0.00000000E+00
  0.00000000E+00  0.00000000E+00  0.00000000E+00
  0.00000000E+00  0.00000000E+00  0.00000000E+00
  0.00000000E+00  0.00000000E+00  0.00000000E+00
  0.00000000E+00  0.00000000E+00  0.00000000E+00
  0.00000000E+00  0.00000000E+00  0.00000000E+00
