In12 Ga42 Cu18 Ag36 Se108               
   1.0000000000000000     
    16.1989439594792515    0.0024005584099561   -7.4345579821017953
    -3.4084108424456252   15.8321279005579338   -7.4468342067141444
     0.0089348701162761    0.0101514517379095   21.3578054362247585
   In   Ga   Cu   Ag   Se
    12    42    18    36   108
Direct
  0.1663962381860102  0.5024709481651826  0.9988011899271214
  0.4989435975933034  0.4960910542558494  0.9985128576335711
  0.1652604615631432  0.8329725182248922  0.9987678112063634
  0.1722830025960036  0.1620974762141856  0.9985241200527639
  0.4968812154756890  0.4969393383839815  0.3324100380149773
  0.8367183448824065  0.5033168832471802  0.3347723058232148
  0.8340094672704694  0.1703495194592435  0.6700046666664008
  0.5813727665908104  0.4130792521901583  0.1641167614335473
  0.9182519611125244  0.7524995627556521  0.1641660546049337
  0.5849007192077238  0.4136352187611720  0.5046782675616370
  0.9219234281040016  0.0824306551265863  0.4993007298759551
  0.5821151849078419  0.4161125588788437  0.8323562444626376
  0.8332229387817804  0.5031688801252443  0.9991514984669507
  0.4986616319019959  0.8352118599352423  0.9993184817003637
  0.8321070766959409  0.8338324077719079  0.9977427467903368
  0.5006775713746379  0.1645996427605922  0.9985755868868935
  0.8259333646577289  0.1605147803461549  0.9988855592872667
  0.1629349188826055  0.4998691013202929  0.3318414990839145
  0.1676708300779239  0.8404940267275052  0.3348535355574782
  0.4971953928916619  0.8371810430789708  0.3302895717069987
  0.8371259106397275  0.8288796885033634  0.3306060913921911
  0.1610557091955584  0.1592201006628358  0.3303845770954652
  0.5009199399544215  0.1620421463768906  0.3281444029546563
  0.8324986025150167  0.1651780358315449  0.3321994939063302
  0.1679425505056074  0.5033584496465195  0.6693396642778993
  0.4986717800697065  0.5032061989510410  0.6718516921863511
  0.8356358486307087  0.5017633554979781  0.6702932930374246
  0.1725877069386499  0.8337790466229507  0.6666063005428100
  0.4999480831539813  0.8375448989077370  0.6701016397071768
  0.8312190142830786  0.8346977898536423  0.6699040838081487
  0.1784769638235630  0.1668920729860517  0.6734036406920225
  0.4947833164537840  0.1615735375762384  0.6653419705608670
  0.2511944837581765  0.4144475719786413  0.1653062059844217
  0.9100267008994507  0.4134427815906960  0.1607839638921931
  0.2462943886564233  0.7581021417241161  0.1671097204357395
  0.5871706782835275  0.7535240721479042  0.1686227186527773
  0.2548430169670155  0.0801932867122233  0.1675162185295633
  0.5777790157890550  0.0793948190520766  0.1609626458428863
  0.9158767235891077  0.0767092277117740  0.1666169149575865
  0.2471761596952859  0.4176468298523801  0.5010270947828701
  0.9166362251118869  0.4161464431130781  0.5020533166436749
  0.2481989638474147  0.7519275014927729  0.4998895794002820
  0.5835115640790320  0.7527596737534523  0.5003367170366531
  0.9248459006014116  0.7542081079177692  0.5062485393100573
  0.2490319077413972  0.0817868948590856  0.5012528586948477
  0.5803999123115986  0.0873824482085297  0.4971754930027004
  0.2540548060482593  0.4170993211147689  0.8323360086370997
  0.9154142003326555  0.4288513472024746  0.8368060954634799
  0.2509858788556230  0.7485102187328394  0.8331646987598376
  0.5854545913519686  0.7505901413359553  0.8352228304058542
  0.9134052751375137  0.7478995169369540  0.8324258123404462
  0.2583114489744460  0.0809564786781181  0.8328844505991171
  0.5806962405828600  0.0828727908784828  0.8363006600331744
  0.9109340585371797  0.0797726059823631  0.8343208728635432
  0.3336053118034528  0.3236160497683898  0.9961346707953638
  0.6704557382193812  0.3347471966306301  0.0000937215507761
  0.9965769093217247  0.6695098570301639  0.9961363895920243
  0.3402307885114837  0.0021878293243986  0.0045122789672121
  0.6651535947258935  0.9947941421331947  0.9954063231570203
  0.0030006366992339  0.0005192343469105  0.3310694377136798
  0.3369727622155452  0.0023004622153167  0.6682904612122371
  0.7511058969491202  0.5800219826005630  0.1622209993706605
  0.0846416330524633  0.9167094224987977  0.1677318258805869
  0.4163999217384102  0.9158016532318172  0.1635764972151037
  0.4138493196545738  0.2436172417629052  0.1615462276513142
  0.0876950136558463  0.5830626965052446  0.5045641182110145
  0.7514436478778919  0.2527387116935458  0.4980373914809846
  0.0807948964506409  0.5810976527949023  0.8303371090854270
  0.4136899882665830  0.5896722726927663  0.8319163964166520
  0.7539494129474775  0.5888946543242852  0.8365571032715806
  0.7468556198733296  0.9152104838190240  0.8346978691976830
  0.4198303201500266  0.2444445965999407  0.8349760301663594
  0.9929515518762315  0.3254425932970264  0.9957796981458387
  0.3381559118497677  0.6721976912668524  0.9978256619924366
  0.6585605052322023  0.6648725594788658  0.9961660759847675
  0.9927386317203926  0.0001005177797992  0.0015127473465810
  0.0048520612568552  0.3357319778199326  0.3357774454366123
  0.3288572961218037  0.3230277175640524  0.3295075551773436
  0.6713696295121494  0.3275677503854695  0.3327112037297297
  0.0005695213743877  0.6663926259744244  0.3354618897233763
  0.3304331574805346  0.6706637980413745  0.3334228536869119
  0.6709949726923909  0.6740184546702821  0.3375467816508930
  0.3307003468350018  0.9989071742442803  0.3313589649990973
  0.6683456412491893  0.0032611148401500  0.3323661358154126
  0.0018144884686677  0.3378357325975259  0.6668286566513828
  0.3327001352195751  0.3329365013745829  0.6677492680196053
  0.6744935732638453  0.3315353951918567  0.6684737233536353
  0.0014132636973514  0.6640426813001170  0.6669170400891318
  0.3308716318634879  0.6666331050708294  0.6636245670017331
  0.6617995080316703  0.6723490188607428  0.6725083910586065
  0.0074180551960694  0.0019034778409619  0.6746450132636213
  0.6605317533819317  0.9985615979077664  0.6679015342416577
  0.0858290004976254  0.5833245115818357  0.1673167914132208
  0.4173886683968107  0.5903472031940140  0.1660928930763248
  0.7471371797040476  0.9239404435436569  0.1667432159422546
  0.0822944654761955  0.2494192144780598  0.1669180168665747
  0.7480795236138889  0.2408310973565477  0.1593292968536346
  0.4130323500132533  0.5901883163194910  0.5023880287742841
  0.7550372473411144  0.5893399856763679  0.5073885565024554
  0.0846566578005010  0.9203229329455951  0.5008276098221813
  0.4185962267449099  0.9134837349804457  0.5041017427239609
  0.7440520630878780  0.9134309465976642  0.4961660985405416
  0.0822052911775515  0.2489638938516592  0.4974296697761176
  0.4112378465305397  0.2507930733911650  0.4971573065622437
  0.0855972642617076  0.9158756855041261  0.8297058089318625
  0.4149877271379694  0.9130479630236152  0.8351480327932350
  0.0872129875349756  0.2546203820958794  0.8349334764032719
  0.7489345998459029  0.2540560517292860  0.8417083868154052
  0.1288476321862575  0.4504064278259321  0.0831338856725736
  0.4464203366373454  0.4499432313958849  0.0776912033525861
  0.7893972393224473  0.4587541558529367  0.0793965773037186
  0.1182407228754911  0.7923100034826547  0.0858226551273020
  0.4691959293742514  0.8008747836544785  0.0891709802946252
  0.7892538682450692  0.7947049062623961  0.0764960034972404
  0.1334847666886958  0.1192203097587452  0.0867868983512068
  0.4581743823541302  0.1254893907895180  0.0814856727005875
  0.7924116356642941  0.1081880023125237  0.0771813652004312
  0.1315627532291117  0.4675482980351546  0.4226820908237201
  0.4555054358048238  0.4564364485285139  0.4197206894335324
  0.7976000612543146  0.4581248893903904  0.4222173994585319
  0.1326020072866356  0.7935231402697411  0.4148680002710421
  0.4664772611220300  0.7927307508953518  0.4144261650313297
  0.8088755479358412  0.7950467496237366  0.4205518000306157
  0.1263927119661190  0.1167310555143146  0.4139072605762379
  0.4623783379262534  0.1265197455394116  0.4125379859255673
  0.7949277724321178  0.1354318335584068  0.4191022682934147
  0.1333810500586594  0.4656072182464683  0.7554885779174754
  0.4555418226108117  0.4701418108701176  0.7539709495235911
  0.7950097611381679  0.4689654774097178  0.7554521223382480
  0.1368222674216142  0.7899322734774614  0.7476250168693568
  0.4671455276352958  0.7892971831644999  0.7501690217886505
  0.7956293828052523  0.7987137235745720  0.7563704891964562
  0.1399389152214781  0.1260738499078968  0.7548542728871936
  0.4579320922773320  0.1218660299345942  0.7508986159517974
  0.7942108886086032  0.1247017736176161  0.7565334475589225
  0.2870320746614468  0.6391143653429125  0.0863176853512257
  0.6282741901454258  0.6276242685302478  0.0918530381913882
  0.9564951259495587  0.6218579389224388  0.0732539870224542
  0.2990454158050326  0.9614954829929090  0.0854626183196388
  0.6159700270032147  0.9601560952990056  0.0742252290111551
  0.9571602512860125  0.9523138122231813  0.0891210620404905
  0.2995926210867239  0.2953139268920282  0.0861844282940467
  0.6212449487403831  0.2857418174180353  0.0723780257201341
  0.9435964220686728  0.2852803499542915  0.0801718576226733
  0.2794680558634823  0.6265858523680237  0.4146818683000859
  0.6229992408190412  0.6304390603483299  0.4212361290066227
  0.9684658594298128  0.6304767608655268  0.4315938240015029
  0.2879286441561035  0.9602631700403705  0.4200957450312188
  0.6148250132938742  0.9612523075947337  0.4150430115271462
  0.9559974770617288  0.9523671380474994  0.4029480846937687
  0.2745306923696376  0.2882292912074575  0.4140348343922682
  0.6242409780480145  0.2811291566800307  0.4156584031263222
  0.9482322992362242  0.2918462609932391  0.4155699205717056
  0.2900332739214662  0.6251937919594042  0.7526862825720926
  0.6240645349292535  0.6232946306557565  0.7586054687418766
  0.9568203705465166  0.6235075063284086  0.7542900156810362
  0.2913793271908816  0.9590384371303387  0.7442875256536468
  0.6223693972361772  0.9580646232802792  0.7581295615656671
  0.9479952999067578  0.9586579215615885  0.7519654096819295
  0.2981140283091079  0.2903056600779834  0.7590151668030956
  0.6154525026037589  0.2811092203678101  0.7431350211277916
  0.9565665996742467  0.3065869680142654  0.7587720003138756
  0.2079323139628642  0.3826949843276921  0.2499502613922502
  0.5356077116006404  0.3632114746969961  0.2455836522005725
  0.8743120602499985  0.3737113173106366  0.2430125933053020
  0.2069024011348048  0.7223821560825954  0.2502444552783558
  0.5440968057632389  0.7208329401477016  0.2515961602698340
  0.8683739171807900  0.7036518014250390  0.2452505774743088
  0.2014543040108805  0.0412616782397919  0.2436629041280511
  0.5344923281276763  0.0389469090501109  0.2410161717400072
  0.8830411907663631  0.0470896898408952  0.2571433204187628
  0.2069111413267350  0.3839484272191456  0.5849005953711384
  0.5392015475245842  0.3809714782069165  0.5945343944609860
  0.8679382180976773  0.3777355545095773  0.5808418833592910
  0.2023048490662234  0.7100616090249900  0.5777382226160626
  0.5393653287522397  0.7207772379979076  0.5837372703774690
  0.8793338384977218  0.7222024965960543  0.5888257704173796
  0.2185039182722477  0.0466962292543585  0.5901302322119122
  0.5409439639025280  0.0504878742068371  0.5812520335495392
  0.8772721730845205  0.0408171145172460  0.5847701660753089
  0.2225029533635805  0.3786307184560229  0.9188827713909049
  0.5434287289607127  0.3627529246110441  0.9161115934611459
  0.8748486010706529  0.3863340188998805  0.9166383687569919
  0.2003640089523913  0.7018633403987877  0.9050229715122029
  0.5313193294627681  0.7125785183206474  0.9113628540672636
  0.8736851346660259  0.7101428639081746  0.9164549844123968
  0.2237276192749462  0.0373913180883676  0.9153366845852560
  0.5463308597390792  0.0438753311191036  0.9212421856072055
  0.8630589349911801  0.0407962160507793  0.9125138682562479
  0.0365224772934312  0.5306484969497731  0.2462289422453523
  0.3672777053395819  0.5374488022077131  0.2445918201006805
  0.7094657789449030  0.5446377284598611  0.2440836933189985
  0.0483442103574490  0.8838821006574449  0.2538779280319901
  0.3754323514511313  0.8724590225731745  0.2424813000791985
  0.7128677748204524  0.8687682532651451  0.2520234844050080
  0.0382502670888627  0.1964009368797406  0.2487417199751576
  0.3783191998983639  0.2002579987652027  0.2437703771616881
  0.7064728523876340  0.1930470971754445  0.2441589653716676
  0.0443488362615554  0.5340703529546929  0.5795493391793229
  0.3745453058702637  0.5323459039684693  0.5830237160995324
  0.7144050681556138  0.5430079303817692  0.5930127975473880
  0.0480527960986024  0.8713236642359590  0.5875146803159979
  0.3721470705290884  0.8740518822376089  0.5905498590398750
  0.7078368737993443  0.8689517740688970  0.5852548470214884
  0.0565165978838422  0.2070482936133118  0.5936890287738450
  0.3728466945371238  0.1991778235936081  0.5826510095613813
  0.7063350549942697  0.2037437333358056  0.5713118422667591
  0.0371831306538866  0.5500241506121242  0.9134561789513924
  0.3743258027978271  0.5389204092625945  0.9066916509816636
  0.7153883957342799  0.5430952429805984  0.9152187134548058
  0.0322452807100504  0.8694015890532540  0.9101660042100619
  0.3707857666622658  0.8728288668641184  0.9230155335894494
  0.7077427138877255  0.8741312612195600  0.9157696647197113
  0.0355151907189679  0.1954529241137664  0.9097216381028161
  0.3783138222452465  0.2056942311355741  0.9162332705438487
  0.7033361899793960  0.2046586970671456  0.9233446452388918

  0.00000000E+00  0.00000000E+00  0.00000000E+00
  0.00000000E+00  0.00000000E+00  0.00000000E+00
  0.00000000E+00  0.00000000E+00  0.00000000E+00
  0.00000000E+00  0.00000000E+00  0.00000000E+00
  0.00000000E+00  0.00000000E+00  0.00000000E+00
  0.00000000E+00  0.00000000E+00  0.00000000E+00
  0.00000000E+00  0.00000000E+00  0.00000000E+00
  0.00000000E+00  0.00000000E+00  0.00000000E+00
  0.00000000E+00  0.00000000E+00  0.00000000E+00
  0.00000000E+00  0.00000000E+00  0.00000000E+00
  0.00000000E+00  0.00000000E+00  0.00000000E+00
  0.00000000E+00  0.00000000E+00  0.00000000E+00
  0.00000000E+00  0.00000000E+00  0.00000000E+00
  0.00000000E+00  0.00000000E+00  0.00000000E+00
  0.00000000E+00  0.00000000E+00  0.00000000E+00
  0.00000000E+00  0.00000000E+00  0.00000000E+00
  0.00000000E+00  0.00000000E+00  0.00000000E+00
  0.00000000E+00  0.00000000E+00  0.00000000E+00
  0.00000000E+00  0.00000000E+00  0.00000000E+00
  0.00000000E+00  0.00000000E+00  0.00000000E+00
  0.00000000E+00  0.00000000E+00  0.00000000E+00
  0.00000000E+00  0.00000000E+00  0.00000000E+00
  0.00000000E+00  0.00000000E+00  0.00000000E+00
  0.00000000E+00  0.00000000E+00  0.00000000E+00
  0.00000000E+00  0.00000000E+00  0.00000000E+00
  0.00000000E+00  0.00000000E+00  0.00000000E+00
  0.00000000E+00  0.00000000E+00  0.00000000E+00
  0.00000000E+00  0.00000000E+00  0.00000000E+00
  0.00000000E+00  0.00000000E+00  0.00000000E+00
  0.00000000E+00  0.00000000E+00  0.00000000E+00
  0.00000000E+00  0.00000000E+00  0.00000000E+00
  0.00000000E+00  0.00000000E+00  0.00000000E+00
  0.00000000E+00  0.00000000E+00  0.00000000E+00
  0.00000000E+00  0.00000000E+00  0.00000000E+00
  0.00000000E+00  0.00000000E+00  0.00000000E+00
  0.00000000E+00  0.00000000E+00  0.00000000E+00
  0.00000000E+00  0.00000000E+00  0.00000000E+00
  0.00000000E+00  0.00000000E+00  0.00000000E+00
  0.00000000E+00  0.00000000E+00  0.00000000E+00
  0.00000000E+00  0.00000000E+00  0.00000000E+00
  0.00000000E+00  0.00000000E+00  0.00000000E+00
  0.00000000E+00  0.00000000E+00  0.00000000E+00
  0.00000000E+00  0.00000000E+00  0.00000000E+00
  0.00000000E+00  0.00000000E+00  0.00000000E+00
  0.00000000E+00  0.00000000E+00  0.00000000E+00
  0.00000000E+00  0.00000000E+00  0.00000000E+00
  0.00000000E+00  0.00000000E+00  0.00000000E+00
  0.00000000E+00  0.00000000E+00  0.00000000E+00
  0.00000000E+00  0.00000000E+00  0.00000000E+00
  0.00000000E+00  0.00000000E+00  0.00000000E+00
  0.00000000E+00  0.00000000E+00  0.00000000E+00
  0.00000000E+00  0.00000000E+00  0.00000000E+00
  0.00000000E+00  0.00000000E+00  0.00000000E+00
  0.00000000E+00  0.00000000E+00  0.00000000E+00
  0.00000000E+00  0.00000000E+00  0.00000000E+00
  0.00000000E+00  0.00000000E+00  0.00000000E+00
  0.00000000E+00  0.00000000E+00  0.00000000E+00
  0.00000000E+00  0.00000000E+00  0.00000000E+00
  0.00000000E+00  0.00000000E+00  0.00000000E+00
  0.00000000E+00  0.00000000E+00  0.00000000E+00
  0.00000000E+00  0.00000000E+00  0.00000000E+00
  0.00000000E+00  0.00000000E+00  0.00000000E+00
  0.00000000E+00  0.00000000E+00  0.00000000E+00
  0.00000000E+00  0.00000000E+00  0.00000000E+00
  0.00000000E+00  0.00000000E+00  0.00000000E+00
  0.00000000E+00  0.00000000E+00  0.00000000E+00
  0.00000000E+00  0.00000000E+00  0.00000000E+00
  0.00000000E+00  0.00000000E+00  0.00000000E+00
  0.00000000E+00  0.00000000E+00  0.00000000E+00
  0.00000000E+00  0.00000000E+00  0.00000000E+00
  0.00000000E+00  0.00000000E+00  0.00000000E+00
  0.00000000E+00  0.00000000E+00  0.00000000E+00
  0.00000000E+00  0.00000000E+00  0.00000000E+00
  0.00000000E+00  0.00000000E+00  0.00000000E+00
  0.00000000E+00  0.00000000E+00  0.00000000E+00
  0.00000000E+00  0.00000000E+00  0.00000000E+00
  0.00000000E+00  0.00000000E+00  0.00000000E+00
  0.00000000E+00  0.00000000E+00  0.00000000E+00
  0.00000000E+00  0.00000000E+00  0.00000000E+00
  0.00000000E+00  0.00000000E+00  0.00000000E+00
  0.00000000E+00  0.00000000E+00  0.00000000E+00
  0.00000000E+00  0.00000000E+00  0.00000000E+00
  0.00000000E+00  0.00000000E+00  0.00000000E+00
  0.00000000E+00  0.00000000E+00  0.00000000E+00
  0.00000000E+00  0.00000000E+00  0.00000000E+00
  0.00000000E+00  0.00000000E+00  0.00000000E+00
  0.00000000E+00  0.00000000E+00  0.00000000E+00
  0.00000000E+00  0.00000000E+00  0.00000000E+00
  0.00000000E+00  0.00000000E+00  0.00000000E+00
  0.00000000E+00  0.00000000E+00  0.00000000E+00
  0.00000000E+00  0.00000000E+00  0.00000000E+00
  0.00000000E+00  0.00000000E+00  0.00000000E+00
  0.00000000E+00  0.00000000E+00  0.00000000E+00
  0.00000000E+00  0.00000000E+00  0.00000000E+00
  0.00000000E+00  0.00000000E+00  0.00000000E+00
  0.00000000E+00  0.00000000E+00  0.00000000E+00
  0.00000000E+00  0.00000000E+00  0.00000000E+00
  0.00000000E+00  0.00000000E+00  0.00000000E+00
  0.00000000E+00  0.00000000E+00  0.00000000E+00
  0.00000000E+00  0.00000000E+00  0.00000000E+00
  0.00000000E+00  0.00000000E+00  0.00000000E+00
  0.00000000E+00  0.00000000E+00  0.00000000E+00
  0.00000000E+00  0.00000000E+00  0.00000000E+00
  0.00000000E+00  0.00000000E+00  0.00000000E+00
  0.00000000E+00  0.00000000E+00  0.00000000E+00
  0.00000000E+00  0.00000000E+00  0.00000000E+00
  0.00000000E+00  0.00000000E+00  0.00000000E+00
  0.00000000E+00  0.00000000E+00  0.00000000E+00
  0.00000000E+00  0.00000000E+00  0.00000000E+00
  0.00000000E+00  0.00000000E+00  0.00000000E+00
  0.00000000E+00  0.00000000E+00  0.00000000E+00
  0.00000000E+00  0.00000000E+00  0.00000000E+00
  0.00000000E+00  0.00000000E+00  0.00000000E+00
  0.00000000E+00  0.00000000E+00  0.00000000E+00
  0.00000000E+00  0.00000000E+00  0.00000000E+00
  0.00000000E+00  0.00000000E+00  0.00000000E+00
  0.00000000E+00  0.00000000E+00  0.00000000E+00
  0.00000000E+00  0.00000000E+00  0.00000000E+00
  0.00000000E+00  0.00000000E+00  0.00000000E+00
  0.00000000E+00  0.00000000E+00  0.00000000E+00
  0.00000000E+00  0.00000000E+00  0.00000000E+00
  0.00000000E+00  0.00000000E+00  0.00000000E+00
  0.00000000E+00  0.00000000E+00  0.00000000E+00
  0.00000000E+00  0.00000000E+00  0.00000000E+00
  0.00000000E+00  0.00000000E+00  0.00000000E+00
  0.00000000E+00  0.00000000E+00  0.00000000E+00
  0.00000000E+00  0.00000000E+00  0.00000000E+00
  0.00000000E+00  0.00000000E+00  0.00000000E+00
  0.00000000E+00  0.00000000E+00  0.00000000E+00
  0.00000000E+00  0.00000000E+00  0.00000000E+00
  0.00000000E+00  0.00000000E+00  0.00000000E+00
  0.00000000E+00  0.00000000E+00  0.00000000E+00
  0.00000000E+00  0.00000000E+00  0.00000000E+00
  0.00000000E+00  0.00000000E+00  0.00000000E+00
  0.00000000E+00  0.00000000E+00  0.00000000E+00
  0.00000000E+00  0.00000000E+00  0.00000000E+00
  0.00000000E+00  0.00000000E+00  0.00000000E+00
  0.00000000E+00  0.00000000E+00  0.00000000E+00
  0.00000000E+00  0.00000000E+00  0.00000000E+00
  0.00000000E+00  0.00000000E+00  0.00000000E+00
  0.00000000E+00  0.00000000E+00  0.00000000E+00
  0.00000000E+00  0.00000000E+00  0.00000000E+00
  0.00000000E+00  0.00000000E+00  0.00000000E+00
  0.00000000E+00  0.00000000E+00  0.00000000E+00
  0.00000000E+00  0.00000000E+00  0.00000000E+00
  0.00000000E+00  0.00000000E+00  0.00000000E+00
  0.00000000E+00  0.00000000E+00  0.00000000E+00
  0.00000000E+00  0.00000000E+00  0.00000000E+00
  0.00000000E+00  0.00000000E+00  0.00000000E+00
  0.00000000E+00  0.00000000E+00  0.00000000E+00
  0.00000000E+00  0.00000000E+00  0.00000000E+00
  0.00000000E+00  0.00000000E+00  0.00000000E+00
  0.00000000E+00  0.00000000E+00  0.00000000E+00
  0.00000000E+00  0.00000000E+00  0.00000000E+00
  0.00000000E+00  0.00000000E+00  0.00000000E+00
  0.00000000E+00  0.00000000E+00  0.00000000E+00
  0.00000000E+00  0.00000000E+00  0.00000000E+00
  0.00000000E+00  0.00000000E+00  0.00000000E+00
  0.00000000E+00  0.00000000E+00  0.00000000E+00
  0.00000000E+00  0.00000000E+00  0.00000000E+00
  0.00000000E+00  0.00000000E+00  0.00000000E+00
  0.00000000E+00  0.00000000E+00  0.00000000E+00
  0.00000000E+00  0.00000000E+00  0.00000000E+00
  0.00000000E+00  0.00000000E+00  0.00000000E+00
  0.00000000E+00  0.00000000E+00  0.00000000E+00
  0.00000000E+00  0.00000000E+00  0.00000000E+00
  0.00000000E+00  0.00000000E+00  0.00000000E+00
  0.00000000E+00  0.00000000E+00  0.00000000E+00
  0.00000000E+00  0.00000000E+00  0.00000000E+00
  0.00000000E+00  0.00000000E+00  0.00000000E+00
  0.00000000E+00  0.00000000E+00  0.00000000E+00
  0.00000000E+00  0.00000000E+00  0.00000000E+00
  0.00000000E+00  0.00000000E+00  0.00000000E+00
  0.00000000E+00  0.00000000E+00  0.00000000E+00
  0.00000000E+00  0.00000000E+00  0.00000000E+00
  0.00000000E+00  0.00000000E+00  0.00000000E+00
  0.00000000E+00  0.00000000E+00  0.00000000E+00
  0.00000000E+00  0.00000000E+00  0.00000000E+00
  0.00000000E+00  0.00000000E+00  0.00000000E+00
  0.00000000E+00  0.00000000E+00  0.00000000E+00
  0.00000000E+00  0.00000000E+00  0.00000000E+00
  0.00000000E+00  0.00000000E+00  0.00000000E+00
  0.00000000E+00  0.00000000E+00  0.00000000E+00
  0.00000000E+00  0.00000000E+00  0.00000000E+00
  0.00000000E+00  0.00000000E+00  0.00000000E+00
  0.00000000E+00  0.00000000E+00  0.00000000E+00
  0.00000000E+00  0.00000000E+00  0.00000000E+00
  0.00000000E+00  0.00000000E+00  0.00000000E+00
  0.00000000E+00  0.00000000E+00  0.00000000E+00
  0.00000000E+00  0.00000000E+00  0.00000000E+00
  0.00000000E+00  0.00000000E+00  0.00000000E+00
  0.00000000E+00  0.00000000E+00  0.00000000E+00
  0.00000000E+00  0.00000000E+00  0.00000000E+00
  0.00000000E+00  0.00000000E+00  0.00000000E+00
  0.00000000E+00  0.00000000E+00  0.00000000E+00
  0.00000000E+00  0.00000000E+00  0.00000000E+00
  0.00000000E+00  0.00000000E+00  0.00000000E+00
  0.00000000E+00  0.00000000E+00  0.00000000E+00
  0.00000000E+00  0.00000000E+00  0.00000000E+00
  0.00000000E+00  0.00000000E+00  0.00000000E+00
  0.00000000E+00  0.00000000E+00  0.00000000E+00
  0.00000000E+00  0.00000000E+00  0.00000000E+00
  0.00000000E+00  0.00000000E+00  0.00000000E+00
  0.00000000E+00  0.00000000E+00  0.00000000E+00
  0.00000000E+00  0.00000000E+00  0.00000000E+00
  0.00000000E+00  0.00000000E+00  0.00000000E+00
  0.00000000E+00  0.00000000E+00  0.00000000E+00
  0.00000000E+00  0.00000000E+00  0.00000000E+00
  0.00000000E+00  0.00000000E+00  0.00000000E+00
  0.00000000E+00  0.00000000E+00  0.00000000E+00
  0.00000000E+00  0.00000000E+00  0.00000000E+00
  0.00000000E+00  0.00000000E+00  0.00000000E+00
  0.00000000E+00  0.00000000E+00  0.00000000E+00
  0.00000000E+00  0.00000000E+00  0.00000000E+00
  0.00000000E+00  0.00000000E+00  0.00000000E+00
  0.00000000E+00  0.00000000E+00  0.00000000E+00
