In54 Ag54 Se108                         
   1.0000000000000000     
    16.9067470747314061   -0.0000000092733596   -7.7117948424716465
    -3.5176357305190025   16.5367572829711058   -7.7117948423964133
     0.0038142627995140    0.0047109577679426   22.3968042182561788
   In   Ag   Se
    54    54   108
Direct
  0.1666669999999968  0.5000000000000000  0.0000000000000000
  0.5000000000000000  0.5000000000000000  0.0000000000000000
  0.8333330000000032  0.5000000000000000  0.0000000000000000
  0.1666669999999968  0.8333330000000032  0.0000000000000000
  0.5000000000000000  0.8333330000000032  0.0000000000000000
  0.8333330000000032  0.8333330000000032  0.0000000000000000
  0.1666669999999968  0.1666669999999968  0.0000000000000000
  0.5000000000000000  0.1666669999999968  0.0000000000000000
  0.8333330000000032  0.1666669999999968  0.0000000000000000
  0.1666669999999968  0.5000000000000000  0.3333330000000032
  0.5000000000000000  0.5000000000000000  0.3333330000000032
  0.8333330000000032  0.5000000000000000  0.3333330000000032
  0.1666669999999968  0.8333330000000032  0.3333330000000032
  0.5000000000000000  0.8333330000000032  0.3333330000000032
  0.8333330000000032  0.8333330000000032  0.3333330000000032
  0.1666669999999968  0.1666669999999968  0.3333330000000032
  0.5000000000000000  0.1666669999999968  0.3333330000000032
  0.8333330000000032  0.1666669999999968  0.3333330000000032
  0.1666669999999968  0.5000000000000000  0.6666669999999968
  0.5000000000000000  0.5000000000000000  0.6666669999999968
  0.8333330000000032  0.5000000000000000  0.6666669999999968
  0.1666669999999968  0.8333330000000032  0.6666669999999968
  0.5000000000000000  0.8333330000000032  0.6666669999999968
  0.8333330000000032  0.8333330000000032  0.6666669999999968
  0.1666669999999968  0.1666669999999968  0.6666669999999968
  0.5000000000000000  0.1666669999999968  0.6666669999999968
  0.8333330000000032  0.1666669999999968  0.6666669999999968
  0.2500000000000000  0.4166669999999968  0.1666669999999968
  0.5833330000000032  0.4166669999999968  0.1666669999999968
  0.9166669999999968  0.4166669999999968  0.1666669999999968
  0.2500000000000000  0.7500000000000000  0.1666669999999968
  0.5833330000000032  0.7500000000000000  0.1666669999999968
  0.9166669999999968  0.7500000000000000  0.1666669999999968
  0.2500000000000000  0.0833330000000032  0.1666669999999968
  0.5833330000000032  0.0833330000000032  0.1666669999999968
  0.9166669999999968  0.0833330000000032  0.1666669999999968
  0.2500000000000000  0.4166669999999968  0.5000000000000000
  0.5833330000000032  0.4166669999999968  0.5000000000000000
  0.9166669999999968  0.4166669999999968  0.5000000000000000
  0.2500000000000000  0.7500000000000000  0.5000000000000000
  0.5833330000000032  0.7500000000000000  0.5000000000000000
  0.9166669999999968  0.7500000000000000  0.5000000000000000
  0.2500000000000000  0.0833330000000032  0.5000000000000000
  0.5833330000000032  0.0833330000000032  0.5000000000000000
  0.9166669999999968  0.0833330000000032  0.5000000000000000
  0.2500000000000000  0.4166669999999968  0.8333330000000032
  0.5833330000000032  0.4166669999999968  0.8333330000000032
  0.9166669999999968  0.4166669999999968  0.8333330000000032
  0.2500000000000000  0.7500000000000000  0.8333330000000032
  0.5833330000000032  0.7500000000000000  0.8333330000000032
  0.9166669999999968  0.7500000000000000  0.8333330000000032
  0.2500000000000000  0.0833330000000032  0.8333330000000032
  0.5833330000000032  0.0833330000000032  0.8333330000000032
  0.9166669999999968  0.0833330000000032  0.8333330000000032
  0.0000000000000000  0.3333330000000032  0.0000000000000000
  0.3333330000000032  0.3333330000000032  0.0000000000000000
  0.6666669999999968  0.3333330000000032  0.0000000000000000
  0.0000000000000000  0.6666669999999968  0.0000000000000000
  0.3333330000000032  0.6666669999999968  0.0000000000000000
  0.6666669999999968  0.6666669999999968  0.0000000000000000
  0.0000000000000000  0.0000000000000000  0.0000000000000000
  0.3333330000000032  0.0000000000000000  0.0000000000000000
  0.6666669999999968  0.0000000000000000  0.0000000000000000
  0.0000000000000000  0.3333330000000032  0.3333330000000032
  0.3333330000000032  0.3333330000000032  0.3333330000000032
  0.6666669999999968  0.3333330000000032  0.3333330000000032
  0.0000000000000000  0.6666669999999968  0.3333330000000032
  0.3333330000000032  0.6666669999999968  0.3333330000000032
  0.6666669999999968  0.6666669999999968  0.3333330000000032
  0.0000000000000000  0.0000000000000000  0.3333330000000032
  0.3333330000000032  0.0000000000000000  0.3333330000000032
  0.6666669999999968  0.0000000000000000  0.3333330000000032
  0.0000000000000000  0.3333330000000032  0.6666669999999968
  0.3333330000000032  0.3333330000000032  0.6666669999999968
  0.6666669999999968  0.3333330000000032  0.6666669999999968
  0.0000000000000000  0.6666669999999968  0.6666669999999968
  0.3333330000000032  0.6666669999999968  0.6666669999999968
  0.6666669999999968  0.6666669999999968  0.6666669999999968
  0.0000000000000000  0.0000000000000000  0.6666669999999968
  0.3333330000000032  0.0000000000000000  0.6666669999999968
  0.6666669999999968  0.0000000000000000  0.6666669999999968
  0.0833330000000032  0.5833330000000032  0.1666669999999968
  0.4166669999999968  0.5833330000000032  0.1666669999999968
  0.7500000000000000  0.5833330000000032  0.1666669999999968
  0.0833330000000032  0.9166669999999968  0.1666669999999968
  0.4166669999999968  0.9166669999999968  0.1666669999999968
  0.7500000000000000  0.9166669999999968  0.1666669999999968
  0.0833330000000032  0.2500000000000000  0.1666669999999968
  0.4166669999999968  0.2500000000000000  0.1666669999999968
  0.7500000000000000  0.2500000000000000  0.1666669999999968
  0.0833330000000032  0.5833330000000032  0.5000000000000000
  0.4166669999999968  0.5833330000000032  0.5000000000000000
  0.7500000000000000  0.5833330000000032  0.5000000000000000
  0.0833330000000032  0.9166669999999968  0.5000000000000000
  0.4166669999999968  0.9166669999999968  0.5000000000000000
  0.7500000000000000  0.9166669999999968  0.5000000000000000
  0.0833330000000032  0.2500000000000000  0.5000000000000000
  0.4166669999999968  0.2500000000000000  0.5000000000000000
  0.7500000000000000  0.2500000000000000  0.5000000000000000
  0.0833330000000032  0.5833330000000032  0.8333330000000032
  0.4166669999999968  0.5833330000000032  0.8333330000000032
  0.7500000000000000  0.5833330000000032  0.8333330000000032
  0.0833330000000032  0.9166669999999968  0.8333330000000032
  0.4166669999999968  0.9166669999999968  0.8333330000000032
  0.7500000000000000  0.9166669999999968  0.8333330000000032
  0.0833330000000032  0.2500000000000000  0.8333330000000032
  0.4166669999999968  0.2500000000000000  0.8333330000000032
  0.7500000000000000  0.2500000000000000  0.8333330000000032
  0.1256278915326092  0.4583330000000032  0.0833330000000032
  0.4589618915326099  0.4583330000000032  0.0833330000000032
  0.7922948915326131  0.4583330000000032  0.0833330000000032
  0.1256278915326092  0.7916669999999968  0.0833330000000032
  0.4589618915326099  0.7916669999999968  0.0833330000000032
  0.7922948915326131  0.7916669999999968  0.0833330000000032
  0.1256278915326092  0.1250000000000000  0.0833330000000032
  0.4589618915326099  0.1250000000000000  0.0833330000000032
  0.7922948915326131  0.1250000000000000  0.0833330000000032
  0.1256278915326092  0.4583330000000032  0.4166669999999968
  0.4589618915326099  0.4583330000000032  0.4166669999999968
  0.7922948915326131  0.4583330000000032  0.4166669999999968
  0.1256278915326092  0.7916669999999968  0.4166669999999968
  0.4589618915326099  0.7916669999999968  0.4166669999999968
  0.7922948915326131  0.7916669999999968  0.4166669999999968
  0.1256278915326092  0.1250000000000000  0.4166669999999968
  0.4589618915326099  0.1250000000000000  0.4166669999999968
  0.7922948915326131  0.1250000000000000  0.4166669999999968
  0.1256278915326092  0.4583330000000032  0.7500000000000000
  0.4589618915326099  0.4583330000000032  0.7500000000000000
  0.7922948915326131  0.4583330000000032  0.7500000000000000
  0.1256278915326092  0.7916669999999968  0.7500000000000000
  0.4589618915326099  0.7916669999999968  0.7500000000000000
  0.7922948915326131  0.7916669999999968  0.7500000000000000
  0.1256278915326092  0.1250000000000000  0.7500000000000000
  0.4589618915326099  0.1250000000000000  0.7500000000000000
  0.7922948915326131  0.1250000000000000  0.7500000000000000
  0.2910381084673901  0.6250000000000000  0.0833330000000032
  0.6243721084673908  0.6250000000000000  0.0833330000000032
  0.9577051084673869  0.6250000000000000  0.0833330000000032
  0.2910381084673901  0.9583330000000032  0.0833330000000032
  0.6243721084673908  0.9583330000000032  0.0833330000000032
  0.9577051084673869  0.9583330000000032  0.0833330000000032
  0.2910381084673901  0.2916669999999968  0.0833330000000032
  0.6243721084673908  0.2916669999999968  0.0833330000000032
  0.9577051084673869  0.2916669999999968  0.0833330000000032
  0.2910381084673901  0.6250000000000000  0.4166669999999968
  0.6243721084673908  0.6250000000000000  0.4166669999999968
  0.9577051084673869  0.6250000000000000  0.4166669999999968
  0.2910381084673901  0.9583330000000032  0.4166669999999968
  0.6243721084673908  0.9583330000000032  0.4166669999999968
  0.9577051084673869  0.9583330000000032  0.4166669999999968
  0.2910381084673901  0.2916669999999968  0.4166669999999968
  0.6243721084673908  0.2916669999999968  0.4166669999999968
  0.9577051084673869  0.2916669999999968  0.4166669999999968
  0.2910381084673901  0.6250000000000000  0.7500000000000000
  0.6243721084673908  0.6250000000000000  0.7500000000000000
  0.9577051084673869  0.6250000000000000  0.7500000000000000
  0.2910381084673901  0.9583330000000032  0.7500000000000000
  0.6243721084673908  0.9583330000000032  0.7500000000000000
  0.9577051084673869  0.9583330000000032  0.7500000000000000
  0.2910381084673901  0.2916669999999968  0.7500000000000000
  0.6243721084673908  0.2916669999999968  0.7500000000000000
  0.9577051084673869  0.2916669999999968  0.7500000000000000
  0.2083330000000032  0.3756278915326092  0.2500000000000000
  0.5416669999999968  0.3756278915326092  0.2500000000000000
  0.8750000000000000  0.3756278915326092  0.2500000000000000
  0.2083330000000032  0.7089618915326099  0.2500000000000000
  0.5416669999999968  0.7089618915326099  0.2500000000000000
  0.8750000000000000  0.7089618915326099  0.2500000000000000
  0.2083330000000032  0.0422948915326131  0.2500000000000000
  0.5416669999999968  0.0422948915326131  0.2500000000000000
  0.8750000000000000  0.0422948915326131  0.2500000000000000
  0.2083330000000032  0.3756278915326092  0.5833330000000032
  0.5416669999999968  0.3756278915326092  0.5833330000000032
  0.8750000000000000  0.3756278915326092  0.5833330000000032
  0.2083330000000032  0.7089618915326099  0.5833330000000032
  0.5416669999999968  0.7089618915326099  0.5833330000000032
  0.8750000000000000  0.7089618915326099  0.5833330000000032
  0.2083330000000032  0.0422948915326131  0.5833330000000032
  0.5416669999999968  0.0422948915326131  0.5833330000000032
  0.8750000000000000  0.0422948915326131  0.5833330000000032
  0.2083330000000032  0.3756278915326092  0.9166669999999968
  0.5416669999999968  0.3756278915326092  0.9166669999999968
  0.8750000000000000  0.3756278915326092  0.9166669999999968
  0.2083330000000032  0.7089618915326099  0.9166669999999968
  0.5416669999999968  0.7089618915326099  0.9166669999999968
  0.8750000000000000  0.7089618915326099  0.9166669999999968
  0.2083330000000032  0.0422948915326131  0.9166669999999968
  0.5416669999999968  0.0422948915326131  0.9166669999999968
  0.8750000000000000  0.0422948915326131  0.9166669999999968
  0.0416669999999968  0.5410381084673901  0.2500000000000000
  0.3750000000000000  0.5410381084673901  0.2500000000000000
  0.7083330000000032  0.5410381084673901  0.2500000000000000
  0.0416669999999968  0.8743721084673908  0.2500000000000000
  0.3750000000000000  0.8743721084673908  0.2500000000000000
  0.7083330000000032  0.8743721084673908  0.2500000000000000
  0.0416669999999968  0.2077051084673869  0.2500000000000000
  0.3750000000000000  0.2077051084673869  0.2500000000000000
  0.7083330000000032  0.2077051084673869  0.2500000000000000
  0.0416669999999968  0.5410381084673901  0.5833330000000032
  0.3750000000000000  0.5410381084673901  0.5833330000000032
  0.7083330000000032  0.5410381084673901  0.5833330000000032
  0.0416669999999968  0.8743721084673908  0.5833330000000032
  0.3750000000000000  0.8743721084673908  0.5833330000000032
  0.7083330000000032  0.8743721084673908  0.5833330000000032
  0.0416669999999968  0.2077051084673869  0.5833330000000032
  0.3750000000000000  0.2077051084673869  0.5833330000000032
  0.7083330000000032  0.2077051084673869  0.5833330000000032
  0.0416669999999968  0.5410381084673901  0.9166669999999968
  0.3750000000000000  0.5410381084673901  0.9166669999999968
  0.7083330000000032  0.5410381084673901  0.9166669999999968
  0.0416669999999968  0.8743721084673908  0.9166669999999968
  0.3750000000000000  0.8743721084673908  0.9166669999999968
  0.7083330000000032  0.8743721084673908  0.9166669999999968
  0.0416669999999968  0.2077051084673869  0.9166669999999968
  0.3750000000000000  0.2077051084673869  0.9166669999999968
  0.7083330000000032  0.2077051084673869  0.9166669999999968

  0.00000000E+00  0.00000000E+00  0.00000000E+00
  0.00000000E+00  0.00000000E+00  0.00000000E+00
  0.00000000E+00  0.00000000E+00  0.00000000E+00
  0.00000000E+00  0.00000000E+00  0.00000000E+00
  0.00000000E+00  0.00000000E+00  0.00000000E+00
  0.00000000E+00  0.00000000E+00  0.00000000E+00
  0.00000000E+00  0.00000000E+00  0.00000000E+00
  0.00000000E+00  0.00000000E+00  0.00000000E+00
  0.00000000E+00  0.00000000E+00  0.00000000E+00
  0.00000000E+00  0.00000000E+00  0.00000000E+00
  0.00000000E+00  0.00000000E+00  0.00000000E+00
  0.00000000E+00  0.00000000E+00  0.00000000E+00
  0.00000000E+00  0.00000000E+00  0.00000000E+00
  0.00000000E+00  0.00000000E+00  0.00000000E+00
  0.00000000E+00  0.00000000E+00  0.00000000E+00
  0.00000000E+00  0.00000000E+00  0.00000000E+00
  0.00000000E+00  0.00000000E+00  0.00000000E+00
  0.00000000E+00  0.00000000E+00  0.00000000E+00
  0.00000000E+00  0.00000000E+00  0.00000000E+00
  0.00000000E+00  0.00000000E+00  0.00000000E+00
  0.00000000E+00  0.00000000E+00  0.00000000E+00
  0.00000000E+00  0.00000000E+00  0.00000000E+00
  0.00000000E+00  0.00000000E+00  0.00000000E+00
  0.00000000E+00  0.00000000E+00  0.00000000E+00
  0.00000000E+00  0.00000000E+00  0.00000000E+00
  0.00000000E+00  0.00000000E+00  0.00000000E+00
  0.00000000E+00  0.00000000E+00  0.00000000E+00
  0.00000000E+00  0.00000000E+00  0.00000000E+00
  0.00000000E+00  0.00000000E+00  0.00000000E+00
  0.00000000E+00  0.00000000E+00  0.00000000E+00
  0.00000000E+00  0.00000000E+00  0.00000000E+00
  0.00000000E+00  0.00000000E+00  0.00000000E+00
  0.00000000E+00  0.00000000E+00  0.00000000E+00
  0.00000000E+00  0.00000000E+00  0.00000000E+00
  0.00000000E+00  0.00000000E+00  0.00000000E+00
  0.00000000E+00  0.00000000E+00  0.00000000E+00
  0.00000000E+00  0.00000000E+00  0.00000000E+00
  0.00000000E+00  0.00000000E+00  0.00000000E+00
  0.00000000E+00  0.00000000E+00  0.00000000E+00
  0.00000000E+00  0.00000000E+00  0.00000000E+00
  0.00000000E+00  0.00000000E+00  0.00000000E+00
  0.00000000E+00  0.00000000E+00  0.00000000E+00
  0.00000000E+00  0.00000000E+00  0.00000000E+00
  0.00000000E+00  0.00000000E+00  0.00000000E+00
  0.00000000E+00  0.00000000E+00  0.00000000E+00
  0.00000000E+00  0.00000000E+00  0.00000000E+00
  0.00000000E+00  0.00000000E+00  0.00000000E+00
  0.00000000E+00  0.00000000E+00  0.00000000E+00
  0.00000000E+00  0.00000000E+00  0.00000000E+00
  0.00000000E+00  0.00000000E+00  0.00000000E+00
  0.00000000E+00  0.00000000E+00  0.00000000E+00
  0.00000000E+00  0.00000000E+00  0.00000000E+00
  0.00000000E+00  0.00000000E+00  0.00000000E+00
  0.00000000E+00  0.00000000E+00  0.00000000E+00
  0.00000000E+00  0.00000000E+00  0.00000000E+00
  0.00000000E+00  0.00000000E+00  0.00000000E+00
  0.00000000E+00  0.00000000E+00  0.00000000E+00
  0.00000000E+00  0.00000000E+00  0.00000000E+00
  0.00000000E+00  0.00000000E+00  0.00000000E+00
  0.00000000E+00  0.00000000E+00  0.00000000E+00
  0.00000000E+00  0.00000000E+00  0.00000000E+00
  0.00000000E+00  0.00000000E+00  0.00000000E+00
  0.00000000E+00  0.00000000E+00  0.00000000E+00
  0.00000000E+00  0.00000000E+00  0.00000000E+00
  0.00000000E+00  0.00000000E+00  0.00000000E+00
  0.00000000E+00  0.00000000E+00  0.00000000E+00
  0.00000000E+00  0.00000000E+00  0.00000000E+00
  0.00000000E+00  0.00000000E+00  0.00000000E+00
  0.00000000E+00  0.00000000E+00  0.00000000E+00
  0.00000000E+00  0.00000000E+00  0.00000000E+00
  0.00000000E+00  0.00000000E+00  0.00000000E+00
  0.00000000E+00  0.00000000E+00  0.00000000E+00
  0.00000000E+00  0.00000000E+00  0.00000000E+00
  0.00000000E+00  0.00000000E+00  0.00000000E+00
  0.00000000E+00  0.00000000E+00  0.00000000E+00
  0.00000000E+00  0.00000000E+00  0.00000000E+00
  0.00000000E+00  0.00000000E+00  0.00000000E+00
  0.00000000E+00  0.00000000E+00  0.00000000E+00
  0.00000000E+00  0.00000000E+00  0.00000000E+00
  0.00000000E+00  0.00000000E+00  0.00000000E+00
  0.00000000E+00  0.00000000E+00  0.00000000E+00
  0.00000000E+00  0.00000000E+00  0.00000000E+00
  0.00000000E+00  0.00000000E+00  0.00000000E+00
  0.00000000E+00  0.00000000E+00  0.00000000E+00
  0.00000000E+00  0.00000000E+00  0.00000000E+00
  0.00000000E+00  0.00000000E+00  0.00000000E+00
  0.00000000E+00  0.00000000E+00  0.00000000E+00
  0.00000000E+00  0.00000000E+00  0.00000000E+00
  0.00000000E+00  0.00000000E+00  0.00000000E+00
  0.00000000E+00  0.00000000E+00  0.00000000E+00
  0.00000000E+00  0.00000000E+00  0.00000000E+00
  0.00000000E+00  0.00000000E+00  0.00000000E+00
  0.00000000E+00  0.00000000E+00  0.00000000E+00
  0.00000000E+00  0.00000000E+00  0.00000000E+00
  0.00000000E+00  0.00000000E+00  0.00000000E+00
  0.00000000E+00  0.00000000E+00  0.00000000E+00
  0.00000000E+00  0.00000000E+00  0.00000000E+00
  0.00000000E+00  0.00000000E+00  0.00000000E+00
  0.00000000E+00  0.00000000E+00  0.00000000E+00
  0.00000000E+00  0.00000000E+00  0.00000000E+00
  0.00000000E+00  0.00000000E+00  0.00000000E+00
  0.00000000E+00  0.00000000E+00  0.00000000E+00
  0.00000000E+00  0.00000000E+00  0.00000000E+00
  0.00000000E+00  0.00000000E+00  0.00000000E+00
  0.00000000E+00  0.00000000E+00  0.00000000E+00
  0.00000000E+00  0.00000000E+00  0.00000000E+00
  0.00000000E+00  0.00000000E+00  0.00000000E+00
  0.00000000E+00  0.00000000E+00  0.00000000E+00
  0.00000000E+00  0.00000000E+00  0.00000000E+00
  0.00000000E+00  0.00000000E+00  0.00000000E+00
  0.00000000E+00  0.00000000E+00  0.00000000E+00
  0.00000000E+00  0.00000000E+00  0.00000000E+00
  0.00000000E+00  0.00000000E+00  0.00000000E+00
  0.00000000E+00  0.00000000E+00  0.00000000E+00
  0.00000000E+00  0.00000000E+00  0.00000000E+00
  0.00000000E+00  0.00000000E+00  0.00000000E+00
  0.00000000E+00  0.00000000E+00  0.00000000E+00
  0.00000000E+00  0.00000000E+00  0.00000000E+00
  0.00000000E+00  0.00000000E+00  0.00000000E+00
  0.00000000E+00  0.00000000E+00  0.00000000E+00
  0.00000000E+00  0.00000000E+00  0.00000000E+00
  0.00000000E+00  0.00000000E+00  0.00000000E+00
  0.00000000E+00  0.00000000E+00  0.00000000E+00
  0.00000000E+00  0.00000000E+00  0.00000000E+00
  0.00000000E+00  0.00000000E+00  0.00000000E+00
  0.00000000E+00  0.00000000E+00  0.00000000E+00
  0.00000000E+00  0.00000000E+00  0.00000000E+00
  0.00000000E+00  0.00000000E+00  0.00000000E+00
  0.00000000E+00  0.00000000E+00  0.00000000E+00
  0.00000000E+00  0.00000000E+00  0.00000000E+00
  0.00000000E+00  0.00000000E+00  0.00000000E+00
  0.00000000E+00  0.00000000E+00  0.00000000E+00
  0.00000000E+00  0.00000000E+00  0.00000000E+00
  0.00000000E+00  0.00000000E+00  0.00000000E+00
  0.00000000E+00  0.00000000E+00  0.00000000E+00
  0.00000000E+00  0.00000000E+00  0.00000000E+00
  0.00000000E+00  0.00000000E+00  0.00000000E+00
  0.00000000E+00  0.00000000E+00  0.00000000E+00
  0.00000000E+00  0.00000000E+00  0.00000000E+00
  0.00000000E+00  0.00000000E+00  0.00000000E+00
  0.00000000E+00  0.00000000E+00  0.00000000E+00
  0.00000000E+00  0.00000000E+00  0.00000000E+00
  0.00000000E+00  0.00000000E+00  0.00000000E+00
  0.00000000E+00  0.00000000E+00  0.00000000E+00
  0.00000000E+00  0.00000000E+00  0.00000000E+00
  0.00000000E+00  0.00000000E+00  0.00000000E+00
  0.00000000E+00  0.00000000E+00  0.00000000E+00
  0.00000000E+00  0.00000000E+00  0.00000000E+00
  0.00000000E+00  0.00000000E+00  0.00000000E+00
  0.00000000E+00  0.00000000E+00  0.00000000E+00
  0.00000000E+00  0.00000000E+00  0.00000000E+00
  0.00000000E+00  0.00000000E+00  0.00000000E+00
  0.00000000E+00  0.00000000E+00  0.00000000E+00
  0.00000000E+00  0.00000000E+00  0.00000000E+00
  0.00000000E+00  0.00000000E+00  0.00000000E+00
  0.00000000E+00  0.00000000E+00  0.00000000E+00
  0.00000000E+00  0.00000000E+00  0.00000000E+00
  0.00000000E+00  0.00000000E+00  0.00000000E+00
  0.00000000E+00  0.00000000E+00  0.00000000E+00
  0.00000000E+00  0.00000000E+00  0.00000000E+00
  0.00000000E+00  0.00000000E+00  0.00000000E+00
  0.00000000E+00  0.00000000E+00  0.00000000E+00
  0.00000000E+00  0.00000000E+00  0.00000000E+00
  0.00000000E+00  0.00000000E+00  0.00000000E+00
  0.00000000E+00  0.00000000E+00  0.00000000E+00
  0.00000000E+00  0.00000000E+00  0.00000000E+00
  0.00000000E+00  0.00000000E+00  0.00000000E+00
  0.00000000E+00  0.00000000E+00  0.00000000E+00
  0.00000000E+00  0.00000000E+00  0.00000000E+00
  0.00000000E+00  0.00000000E+00  0.00000000E+00
  0.00000000E+00  0.00000000E+00  0.00000000E+00
  0.00000000E+00  0.00000000E+00  0.00000000E+00
  0.00000000E+00  0.00000000E+00  0.00000000E+00
  0.00000000E+00  0.00000000E+00  0.00000000E+00
  0.00000000E+00  0.00000000E+00  0.00000000E+00
  0.00000000E+00  0.00000000E+00  0.00000000E+00
  0.00000000E+00  0.00000000E+00  0.00000000E+00
  0.00000000E+00  0.00000000E+00  0.00000000E+00
  0.00000000E+00  0.00000000E+00  0.00000000E+00
  0.00000000E+00  0.00000000E+00  0.00000000E+00
  0.00000000E+00  0.00000000E+00  0.00000000E+00
  0.00000000E+00  0.00000000E+00  0.00000000E+00
  0.00000000E+00  0.00000000E+00  0.00000000E+00
  0.00000000E+00  0.00000000E+00  0.00000000E+00
  0.00000000E+00  0.00000000E+00  0.00000000E+00
  0.00000000E+00  0.00000000E+00  0.00000000E+00
  0.00000000E+00  0.00000000E+00  0.00000000E+00
  0.00000000E+00  0.00000000E+00  0.00000000E+00
  0.00000000E+00  0.00000000E+00  0.00000000E+00
  0.00000000E+00  0.00000000E+00  0.00000000E+00
  0.00000000E+00  0.00000000E+00  0.00000000E+00
  0.00000000E+00  0.00000000E+00  0.00000000E+00
  0.00000000E+00  0.00000000E+00  0.00000000E+00
  0.00000000E+00  0.00000000E+00  0.00000000E+00
  0.00000000E+00  0.00000000E+00  0.00000000E+00
  0.00000000E+00  0.00000000E+00  0.00000000E+00
  0.00000000E+00  0.00000000E+00  0.00000000E+00
  0.00000000E+00  0.00000000E+00  0.00000000E+00
  0.00000000E+00  0.00000000E+00  0.00000000E+00
  0.00000000E+00  0.00000000E+00  0.00000000E+00
  0.00000000E+00  0.00000000E+00  0.00000000E+00
  0.00000000E+00  0.00000000E+00  0.00000000E+00
  0.00000000E+00  0.00000000E+00  0.00000000E+00
  0.00000000E+00  0.00000000E+00  0.00000000E+00
  0.00000000E+00  0.00000000E+00  0.00000000E+00
  0.00000000E+00  0.00000000E+00  0.00000000E+00
  0.00000000E+00  0.00000000E+00  0.00000000E+00
  0.00000000E+00  0.00000000E+00  0.00000000E+00
  0.00000000E+00  0.00000000E+00  0.00000000E+00
  0.00000000E+00  0.00000000E+00  0.00000000E+00
  0.00000000E+00  0.00000000E+00  0.00000000E+00
  0.00000000E+00  0.00000000E+00  0.00000000E+00
  0.00000000E+00  0.00000000E+00  0.00000000E+00
  0.00000000E+00  0.00000000E+00  0.00000000E+00
  0.00000000E+00  0.00000000E+00  0.00000000E+00
  0.00000000E+00  0.00000000E+00  0.00000000E+00
