In42 Ga12 Cu42 Ag12 Se108               
   1.0000000000000000     
    16.1463581698889769   -0.0346856757215057   -7.2196594243797874
    -3.2002941959977824   15.8052561133474345   -7.2206806391629073
     0.0337399872941761    0.0337829400594635   21.6667445276110868
   In   Ga   Cu   Ag   Se
    42    12    42    12   108
Direct
  0.1692267328327262  0.4984225517871010  0.0021250188411557
  0.4981757523937631  0.5007696987529968  0.0005597135001025
  0.8363712619688783  0.5013155305417669  0.0046007457834918
  0.5006679834020957  0.8341302980904715  0.0033960449326855
  0.8334649830970804  0.8339537047640349  0.0016368683347849
  0.1673073762607231  0.1657104252209862  0.9978772998734300
  0.4999255838348304  0.1688637734299974  0.0000601580994228
  0.8289607798860104  0.1685436853707714  0.0000364831759327
  0.1688602091619629  0.5035796641823609  0.3336238304802279
  0.1731910457568588  0.8317723846162792  0.3329029553790619
  0.8267652917142314  0.8348074499071316  0.3317225405975890
  0.1703979416215091  0.1639153680876788  0.3337684069017186
  0.8302669408338446  0.1649349534301194  0.3312457463199507
  0.1689366389291820  0.4983812624604838  0.6648873054327211
  0.4983622986699103  0.4984776134636846  0.6632117688214905
  0.8293524980112394  0.4960595581809812  0.6623819171537164
  0.1665258052046212  0.8297213461733932  0.6634249247253976
  0.4981869860481183  0.8357366768851122  0.6634100416173681
  0.8300700753322445  0.8345933827169674  0.6671942600693868
  0.1703596209136577  0.1701603072629752  0.6684751975233283
  0.8341408121092400  0.1631696543897547  0.6680392266180419
  0.2576006079909021  0.4185085697540956  0.1708409434539817
  0.5829214487996666  0.4212950628151688  0.1712999521792113
  0.2549922913673157  0.7496309394821523  0.1675026002983842
  0.5812232246620113  0.7498604521413341  0.1697031806233582
  0.9171072729835217  0.7526309816322083  0.1686582322524046
  0.2539050099747513  0.0821787958073159  0.1687496189831350
  0.5813496228081334  0.0871571959453306  0.1694448596111613
  0.9168851240740779  0.0807503741356612  0.1655896902801999
  0.2523784114462089  0.4151763810016362  0.4976901702157122
  0.9163262599310897  0.4206485683314654  0.4979538797230205
  0.9078362587009252  0.7417675188291568  0.4954122096241065
  0.2554484261705525  0.0848440234915060  0.4998930047352133
  0.5781987326718863  0.0794515481669080  0.4971384351857253
  0.9134518820803947  0.0814171933374581  0.4963049447099763
  0.2538681669982452  0.4154734166730947  0.8346059449169516
  0.5787347132844829  0.4138520444639369  0.8323140877633506
  0.9176911531467411  0.4152845171260680  0.8331027558988424
  0.2498297921431600  0.7519092680302180  0.8356602785384126
  0.5809373353675511  0.7488559506659769  0.8341514039935589
  0.9230560773333494  0.7528008396745207  0.8366489245194657
  0.2510484831013358  0.0846385034126556  0.8331562009281868
  0.1718174833032791  0.8359402535587677  0.0045180225771091
  0.5013293940253121  0.5034207765259922  0.3375874610678196
  0.8280151644884555  0.4992016218032731  0.3302023736127992
  0.5001314706888564  0.8316341263734586  0.3342211509297144
  0.4977086629574146  0.1682902232858225  0.3329689132653613
  0.4992523647341898  0.1654759342266203  0.6656603254120839
  0.9110345680635135  0.4193488893204531  0.1658069505960640
  0.5780507130235861  0.4128265815646657  0.4926770584721112
  0.2552239612902980  0.7493695333457140  0.4999226259743565
  0.5800606993803328  0.7500499667703338  0.4943348465183419
  0.5805684859977305  0.0878336458325961  0.8324918010728766
  0.9202116945841681  0.0832776412027414  0.8373264770253357
  0.0020610295872103  0.3328990093857911  0.0011328321229698
  0.3355710346346115  0.3334769460460478  0.0010806278190785
  0.6659529141485052  0.3353940879017046  0.0036860266973804
  0.0081119425197684  0.6729795492414112  0.0085683663288378
  0.3360306042013690  0.6687606125777634  0.0040332861531240
  0.6639746811474936  0.6686235085899952  0.0046163985421046
  0.0065639416452470  0.9966130577107108  0.0008145712376901
  0.3327655250425252  0.0018600324437728  0.0052295188837590
  0.6662780211435759  0.0063584808710360  0.0038810145737855
  0.3453813547444753  0.3343170805370406  0.3389386439308595
  0.6612864120549133  0.3365421039992782  0.3323606443239555
  0.3397633939454821  0.6710213447595805  0.3370580134487753
  0.6622827792049648  0.6660754317151856  0.3354465516890954
  0.0013919131437490  0.0009107286166881  0.3298659461457589
  0.3394196474935782  0.0000558244667559  0.3332676673326205
  0.6561077067280507  0.9956428309733099  0.3298338877948268
  0.0020381685458517  0.3287170435031754  0.6661770077811440
  0.3369618739070788  0.3309636294893750  0.6641123328220218
  0.6576571611968021  0.3300275194116793  0.6592810992850744
  0.9979099388553649  0.6681155865091029  0.6629504772103019
  0.3291678000001781  0.6619015574337936  0.6601581846573907
  0.3420248575615332  0.0024275154265041  0.6655986477696274
  0.6612891049035809  0.9972681460819004  0.6630255750476692
  0.0853843978747690  0.5808638019495334  0.1647029533578603
  0.4192913901509883  0.5849330560042461  0.1728475772325311
  0.7472577406263312  0.5794342087565738  0.1680807612453350
  0.0854990537130220  0.9153520024309358  0.1654409816952409
  0.4176327624695588  0.9188293618319747  0.1717445075477855
  0.7474992187596925  0.9171014847087235  0.1655413660352423
  0.4186532317496585  0.2532646752477064  0.1706553081865962
  0.7481638194020803  0.2530650071031957  0.1677223002508512
  0.0863046620578345  0.5859685554518776  0.5017588071204813
  0.4161497087535864  0.5837146340643145  0.4953605698589314
  0.7449223417558741  0.5805050278019124  0.4911736749795708
  0.4187654487373678  0.9152483569485241  0.4995592668824429
  0.7385737284156662  0.9112276334145193  0.4959259046509956
  0.0867993229774413  0.2481718499565915  0.5017502773161340
  0.4215516650635323  0.2490661703691686  0.5001616103088153
  0.4147110416861040  0.5838469301131894  0.8319222564409046
  0.0878672620067107  0.9152643522753152  0.8371990898326018
  0.0823633273895865  0.2523997287161848  0.8373109911289305
  0.4189489518203118  0.2468735210644510  0.8308038850115693
  0.9915694893355109  0.3360294438632252  0.3308599328026460
  0.9981756038840359  0.6607818019135578  0.3323562225597669
  0.6628766341076258  0.6588363025164554  0.6533541728089034
  0.9949744521981003  0.0011318864595609  0.6702595149973263
  0.0837114240192847  0.2588535380383803  0.1636724213512437
  0.0856731336494292  0.9168366609356298  0.4991767776959009
  0.7459811240114576  0.2523453694917634  0.4981682948788446
  0.0845474420516581  0.5851897722106187  0.8340606522118534
  0.7540631881668602  0.5810351316256614  0.8380303478218067
  0.4169473260654897  0.9176319692112429  0.8314126624367759
  0.7513983232576820  0.9280045976977362  0.8387961335080050
  0.7463459076220786  0.2441251814422571  0.8272724539767609
  0.1192089923657775  0.4549217790059643  0.0854641885780580
  0.4476770481151959  0.4607820178393922  0.0858825485883941
  0.7848104941312783  0.4575553180204039  0.0878503035299190
  0.1237513278923146  0.7955991994079028  0.0829349981177359
  0.4489191799435872  0.7943012530547549  0.0876792766454457
  0.7803680763235974  0.7917736310565004  0.0842001712003295
  0.1206525691600007  0.1200114846280016  0.0811768976943625
  0.4469433687508158  0.1277033540534021  0.0841776477254541
  0.7826418568231333  0.1283173107623483  0.0871114259934842
  0.1215647306966332  0.4652501784644016  0.4201538736668624
  0.4571845593553050  0.4613542583088588  0.4177276400740197
  0.7804646717042374  0.4581879313897872  0.4083726643123811
  0.1319734200751839  0.7852962185900907  0.4187635390780642
  0.4571432429420597  0.7944417237111949  0.4166101441165324
  0.7767036967392684  0.7905797654891487  0.4153917477186866
  0.1172880680995902  0.1240569296950085  0.4173284741134111
  0.4506096025709212  0.1275372978137952  0.4113326912364457
  0.7763730440558376  0.1148019352628751  0.4084274327014938
  0.1190313464033821  0.4499595495965423  0.7455795952102520
  0.4467716994320554  0.4593126385103758  0.7485115779933480
  0.7803918450331793  0.4462754778345825  0.7424980355154531
  0.1145758836559168  0.7910935810755362  0.7490266975318960
  0.4483071728732071  0.7819374101020955  0.7411965408597680
  0.7873323525569589  0.7913861797694750  0.7530505963627405
  0.1204302845148391  0.1338763756917416  0.7549840359331128
  0.4570543888510628  0.1263978743299603  0.7491147274164476
  0.7912064497390219  0.1085193612344995  0.7493287862810689
  0.3054318004140910  0.6226992179105864  0.0852546927395892
  0.6338947995405420  0.6246468028965921  0.0871874966916479
  0.9712529835771875  0.6278952879220085  0.0870118159138329
  0.2992846098431272  0.9524877879520091  0.0835190090106153
  0.6334312744956421  0.9624071471926641  0.0852992915908430
  0.9700875327008163  0.9571731226445266  0.0826286784335579
  0.3036947894492315  0.2907988768341454  0.0837185679736407
  0.6329916367580921  0.2954442973526881  0.0867743935881933
  0.9536015574102237  0.3031944910400881  0.0823614305783522
  0.3017049602773270  0.6326612075042135  0.4193860014024793
  0.6248007524299481  0.6257874772705563  0.4165622128022619
  0.9569492875136376  0.6113314911195715  0.4159576650524670
  0.3068815732120029  0.9587883178067926  0.4161400832904647
  0.6243938495097225  0.9500685113867533  0.4107148870755140
  0.9614220786502585  0.9583883266337949  0.4085488178606340
  0.3056998410784928  0.2895404079965189  0.4167748454981179
  0.6168835076130392  0.2924545259633717  0.4087863381356698
  0.9663760474129646  0.2877049455319423  0.4221539474701643
  0.3014818884408328  0.6272674253089718  0.7491729280150636
  0.6291145508864275  0.6247577676900988  0.7488856078443007
  0.9594205915874738  0.6256631511824438  0.7421114161520208
  0.2939820118716838  0.9615452246073701  0.7409336765190702
  0.6239978346861008  0.9702017004760322  0.7502698043975400
  0.9660556950608026  0.9600394101714258  0.7639196760634306
  0.3069795667855075  0.2928798463880682  0.7501825326122216
  0.6195660003654808  0.2876660172355940  0.7387325457086575
  0.9691686915680506  0.2894341281729353  0.7495262967839835
  0.2234866974001832  0.3730697184100649  0.2602911521866176
  0.5372292806542944  0.3755611835331862  0.2562618444207629
  0.8639624407471374  0.3774167631142475  0.2436775187998208
  0.2119099093920838  0.6943753322216892  0.2486967282165296
  0.5392657368005729  0.7043893588803627  0.2565603808950172
  0.8657389612643627  0.7003657204020826  0.2461985335581431
  0.2116644542419834  0.0282334737194603  0.2506378997843370
  0.5364178591003395  0.0406371296742307  0.2549765398949901
  0.8737001209718258  0.0298252977024376  0.2482443446532514
  0.2112737189616212  0.3625899600374822  0.5814467775709247
  0.5422749453728173  0.3679473836743554  0.5748530769800340
  0.8844828273415146  0.3701294221557490  0.5862989438097514
  0.2112441672607162  0.6999845088732783  0.5763779249793188
  0.5348732714388689  0.7051044615697677  0.5700705789007259
  0.8681524862977099  0.6959651881342452  0.5822552663093106
  0.2193253528644803  0.0402873150582366  0.5886412767011393
  0.5376201477150673  0.0372722719558212  0.5868841895973134
  0.8616678270154452  0.0276801781013774  0.5732279951661781
  0.2098608354077172  0.3637182878738798  0.9176723136777838
  0.5407781656923518  0.3643016687593601  0.9186450320066299
  0.8800284012535968  0.3691907186111223  0.9206464715670180
  0.2151021859454119  0.7121751557961105  0.9287593270714396
  0.5400373397754521  0.6975481644519093  0.9185586856607131
  0.8866176408053406  0.7054327326161172  0.9244871065988107
  0.2111280213487561  0.0307763801461007  0.9164382602489809
  0.5501043002853834  0.0423696883374873  0.9161025874389210
  0.8901925206421879  0.0454930872479693  0.9245519863811680
  0.0367554463603597  0.5358656325623059  0.2379720126618992
  0.3847178861178122  0.5525669720034969  0.2591902284594880
  0.7120012381364162  0.5536760820781410  0.2571042533266805
  0.0459045792569555  0.8848221146726445  0.2506169923784967
  0.3841408039024401  0.8816268214460976  0.2564974854502964
  0.7026547361490998  0.8864765882724583  0.2477522271338088
  0.0436812866162768  0.2106527530779871  0.2498581799487525
  0.3814964174303910  0.2158461890367036  0.2538074845532492
  0.7068965254321569  0.2225867699787543  0.2515607623825815
  0.0443919439570664  0.5540972484015612  0.5839574700961307
  0.3756655163117912  0.5511044295029706  0.5791497065675344
  0.7020238204881224  0.5298794279003403  0.5647840364550518
  0.0351094148646496  0.8720233289333592  0.5802425341540101
  0.3686603539904354  0.8792783657685703  0.5766278360627481
  0.6978184208028821  0.8773447984885294  0.5782272782375273
  0.0412607345424618  0.2148611889441412  0.5817283602483982
  0.3851456744472230  0.2166059713640038  0.5862329625692553
  0.7041746209631299  0.2119663761304551  0.5871462902811828
  0.0408925226465513  0.5509344873909612  0.9242038563118200
  0.3744561071694648  0.5545692074916602  0.9172599591811590
  0.7041483979021734  0.5484872914006544  0.9250628467365871
  0.0545876048508589  0.8824902503472813  0.9239679344899230
  0.3743529537875077  0.8865845280771580  0.9232163488379186
  0.7040509889976931  0.8852423608693840  0.9234298120010109
  0.0356580081550746  0.2129980271077727  0.9140358378718290
  0.3760522806200086  0.2197804867499613  0.9155982675493135
  0.6969235084692542  0.2129335323040920  0.9166025987082804

  0.00000000E+00  0.00000000E+00  0.00000000E+00
  0.00000000E+00  0.00000000E+00  0.00000000E+00
  0.00000000E+00  0.00000000E+00  0.00000000E+00
  0.00000000E+00  0.00000000E+00  0.00000000E+00
  0.00000000E+00  0.00000000E+00  0.00000000E+00
  0.00000000E+00  0.00000000E+00  0.00000000E+00
  0.00000000E+00  0.00000000E+00  0.00000000E+00
  0.00000000E+00  0.00000000E+00  0.00000000E+00
  0.00000000E+00  0.00000000E+00  0.00000000E+00
  0.00000000E+00  0.00000000E+00  0.00000000E+00
  0.00000000E+00  0.00000000E+00  0.00000000E+00
  0.00000000E+00  0.00000000E+00  0.00000000E+00
  0.00000000E+00  0.00000000E+00  0.00000000E+00
  0.00000000E+00  0.00000000E+00  0.00000000E+00
  0.00000000E+00  0.00000000E+00  0.00000000E+00
  0.00000000E+00  0.00000000E+00  0.00000000E+00
  0.00000000E+00  0.00000000E+00  0.00000000E+00
  0.00000000E+00  0.00000000E+00  0.00000000E+00
  0.00000000E+00  0.00000000E+00  0.00000000E+00
  0.00000000E+00  0.00000000E+00  0.00000000E+00
  0.00000000E+00  0.00000000E+00  0.00000000E+00
  0.00000000E+00  0.00000000E+00  0.00000000E+00
  0.00000000E+00  0.00000000E+00  0.00000000E+00
  0.00000000E+00  0.00000000E+00  0.00000000E+00
  0.00000000E+00  0.00000000E+00  0.00000000E+00
  0.00000000E+00  0.00000000E+00  0.00000000E+00
  0.00000000E+00  0.00000000E+00  0.00000000E+00
  0.00000000E+00  0.00000000E+00  0.00000000E+00
  0.00000000E+00  0.00000000E+00  0.00000000E+00
  0.00000000E+00  0.00000000E+00  0.00000000E+00
  0.00000000E+00  0.00000000E+00  0.00000000E+00
  0.00000000E+00  0.00000000E+00  0.00000000E+00
  0.00000000E+00  0.00000000E+00  0.00000000E+00
  0.00000000E+00  0.00000000E+00  0.00000000E+00
  0.00000000E+00  0.00000000E+00  0.00000000E+00
  0.00000000E+00  0.00000000E+00  0.00000000E+00
  0.00000000E+00  0.00000000E+00  0.00000000E+00
  0.00000000E+00  0.00000000E+00  0.00000000E+00
  0.00000000E+00  0.00000000E+00  0.00000000E+00
  0.00000000E+00  0.00000000E+00  0.00000000E+00
  0.00000000E+00  0.00000000E+00  0.00000000E+00
  0.00000000E+00  0.00000000E+00  0.00000000E+00
  0.00000000E+00  0.00000000E+00  0.00000000E+00
  0.00000000E+00  0.00000000E+00  0.00000000E+00
  0.00000000E+00  0.00000000E+00  0.00000000E+00
  0.00000000E+00  0.00000000E+00  0.00000000E+00
  0.00000000E+00  0.00000000E+00  0.00000000E+00
  0.00000000E+00  0.00000000E+00  0.00000000E+00
  0.00000000E+00  0.00000000E+00  0.00000000E+00
  0.00000000E+00  0.00000000E+00  0.00000000E+00
  0.00000000E+00  0.00000000E+00  0.00000000E+00
  0.00000000E+00  0.00000000E+00  0.00000000E+00
  0.00000000E+00  0.00000000E+00  0.00000000E+00
  0.00000000E+00  0.00000000E+00  0.00000000E+00
  0.00000000E+00  0.00000000E+00  0.00000000E+00
  0.00000000E+00  0.00000000E+00  0.00000000E+00
  0.00000000E+00  0.00000000E+00  0.00000000E+00
  0.00000000E+00  0.00000000E+00  0.00000000E+00
  0.00000000E+00  0.00000000E+00  0.00000000E+00
  0.00000000E+00  0.00000000E+00  0.00000000E+00
  0.00000000E+00  0.00000000E+00  0.00000000E+00
  0.00000000E+00  0.00000000E+00  0.00000000E+00
  0.00000000E+00  0.00000000E+00  0.00000000E+00
  0.00000000E+00  0.00000000E+00  0.00000000E+00
  0.00000000E+00  0.00000000E+00  0.00000000E+00
  0.00000000E+00  0.00000000E+00  0.00000000E+00
  0.00000000E+00  0.00000000E+00  0.00000000E+00
  0.00000000E+00  0.00000000E+00  0.00000000E+00
  0.00000000E+00  0.00000000E+00  0.00000000E+00
  0.00000000E+00  0.00000000E+00  0.00000000E+00
  0.00000000E+00  0.00000000E+00  0.00000000E+00
  0.00000000E+00  0.00000000E+00  0.00000000E+00
  0.00000000E+00  0.00000000E+00  0.00000000E+00
  0.00000000E+00  0.00000000E+00  0.00000000E+00
  0.00000000E+00  0.00000000E+00  0.00000000E+00
  0.00000000E+00  0.00000000E+00  0.00000000E+00
  0.00000000E+00  0.00000000E+00  0.00000000E+00
  0.00000000E+00  0.00000000E+00  0.00000000E+00
  0.00000000E+00  0.00000000E+00  0.00000000E+00
  0.00000000E+00  0.00000000E+00  0.00000000E+00
  0.00000000E+00  0.00000000E+00  0.00000000E+00
  0.00000000E+00  0.00000000E+00  0.00000000E+00
  0.00000000E+00  0.00000000E+00  0.00000000E+00
  0.00000000E+00  0.00000000E+00  0.00000000E+00
  0.00000000E+00  0.00000000E+00  0.00000000E+00
  0.00000000E+00  0.00000000E+00  0.00000000E+00
  0.00000000E+00  0.00000000E+00  0.00000000E+00
  0.00000000E+00  0.00000000E+00  0.00000000E+00
  0.00000000E+00  0.00000000E+00  0.00000000E+00
  0.00000000E+00  0.00000000E+00  0.00000000E+00
  0.00000000E+00  0.00000000E+00  0.00000000E+00
  0.00000000E+00  0.00000000E+00  0.00000000E+00
  0.00000000E+00  0.00000000E+00  0.00000000E+00
  0.00000000E+00  0.00000000E+00  0.00000000E+00
  0.00000000E+00  0.00000000E+00  0.00000000E+00
  0.00000000E+00  0.00000000E+00  0.00000000E+00
  0.00000000E+00  0.00000000E+00  0.00000000E+00
  0.00000000E+00  0.00000000E+00  0.00000000E+00
  0.00000000E+00  0.00000000E+00  0.00000000E+00
  0.00000000E+00  0.00000000E+00  0.00000000E+00
  0.00000000E+00  0.00000000E+00  0.00000000E+00
  0.00000000E+00  0.00000000E+00  0.00000000E+00
  0.00000000E+00  0.00000000E+00  0.00000000E+00
  0.00000000E+00  0.00000000E+00  0.00000000E+00
  0.00000000E+00  0.00000000E+00  0.00000000E+00
  0.00000000E+00  0.00000000E+00  0.00000000E+00
  0.00000000E+00  0.00000000E+00  0.00000000E+00
  0.00000000E+00  0.00000000E+00  0.00000000E+00
  0.00000000E+00  0.00000000E+00  0.00000000E+00
  0.00000000E+00  0.00000000E+00  0.00000000E+00
  0.00000000E+00  0.00000000E+00  0.00000000E+00
  0.00000000E+00  0.00000000E+00  0.00000000E+00
  0.00000000E+00  0.00000000E+00  0.00000000E+00
  0.00000000E+00  0.00000000E+00  0.00000000E+00
  0.00000000E+00  0.00000000E+00  0.00000000E+00
  0.00000000E+00  0.00000000E+00  0.00000000E+00
  0.00000000E+00  0.00000000E+00  0.00000000E+00
  0.00000000E+00  0.00000000E+00  0.00000000E+00
  0.00000000E+00  0.00000000E+00  0.00000000E+00
  0.00000000E+00  0.00000000E+00  0.00000000E+00
  0.00000000E+00  0.00000000E+00  0.00000000E+00
  0.00000000E+00  0.00000000E+00  0.00000000E+00
  0.00000000E+00  0.00000000E+00  0.00000000E+00
  0.00000000E+00  0.00000000E+00  0.00000000E+00
  0.00000000E+00  0.00000000E+00  0.00000000E+00
  0.00000000E+00  0.00000000E+00  0.00000000E+00
  0.00000000E+00  0.00000000E+00  0.00000000E+00
  0.00000000E+00  0.00000000E+00  0.00000000E+00
  0.00000000E+00  0.00000000E+00  0.00000000E+00
  0.00000000E+00  0.00000000E+00  0.00000000E+00
  0.00000000E+00  0.00000000E+00  0.00000000E+00
  0.00000000E+00  0.00000000E+00  0.00000000E+00
  0.00000000E+00  0.00000000E+00  0.00000000E+00
  0.00000000E+00  0.00000000E+00  0.00000000E+00
  0.00000000E+00  0.00000000E+00  0.00000000E+00
  0.00000000E+00  0.00000000E+00  0.00000000E+00
  0.00000000E+00  0.00000000E+00  0.00000000E+00
  0.00000000E+00  0.00000000E+00  0.00000000E+00
  0.00000000E+00  0.00000000E+00  0.00000000E+00
  0.00000000E+00  0.00000000E+00  0.00000000E+00
  0.00000000E+00  0.00000000E+00  0.00000000E+00
  0.00000000E+00  0.00000000E+00  0.00000000E+00
  0.00000000E+00  0.00000000E+00  0.00000000E+00
  0.00000000E+00  0.00000000E+00  0.00000000E+00
  0.00000000E+00  0.00000000E+00  0.00000000E+00
  0.00000000E+00  0.00000000E+00  0.00000000E+00
  0.00000000E+00  0.00000000E+00  0.00000000E+00
  0.00000000E+00  0.00000000E+00  0.00000000E+00
  0.00000000E+00  0.00000000E+00  0.00000000E+00
  0.00000000E+00  0.00000000E+00  0.00000000E+00
  0.00000000E+00  0.00000000E+00  0.00000000E+00
  0.00000000E+00  0.00000000E+00  0.00000000E+00
  0.00000000E+00  0.00000000E+00  0.00000000E+00
  0.00000000E+00  0.00000000E+00  0.00000000E+00
  0.00000000E+00  0.00000000E+00  0.00000000E+00
  0.00000000E+00  0.00000000E+00  0.00000000E+00
  0.00000000E+00  0.00000000E+00  0.00000000E+00
  0.00000000E+00  0.00000000E+00  0.00000000E+00
  0.00000000E+00  0.00000000E+00  0.00000000E+00
  0.00000000E+00  0.00000000E+00  0.00000000E+00
  0.00000000E+00  0.00000000E+00  0.00000000E+00
  0.00000000E+00  0.00000000E+00  0.00000000E+00
  0.00000000E+00  0.00000000E+00  0.00000000E+00
  0.00000000E+00  0.00000000E+00  0.00000000E+00
  0.00000000E+00  0.00000000E+00  0.00000000E+00
  0.00000000E+00  0.00000000E+00  0.00000000E+00
  0.00000000E+00  0.00000000E+00  0.00000000E+00
  0.00000000E+00  0.00000000E+00  0.00000000E+00
  0.00000000E+00  0.00000000E+00  0.00000000E+00
  0.00000000E+00  0.00000000E+00  0.00000000E+00
  0.00000000E+00  0.00000000E+00  0.00000000E+00
  0.00000000E+00  0.00000000E+00  0.00000000E+00
  0.00000000E+00  0.00000000E+00  0.00000000E+00
  0.00000000E+00  0.00000000E+00  0.00000000E+00
  0.00000000E+00  0.00000000E+00  0.00000000E+00
  0.00000000E+00  0.00000000E+00  0.00000000E+00
  0.00000000E+00  0.00000000E+00  0.00000000E+00
  0.00000000E+00  0.00000000E+00  0.00000000E+00
  0.00000000E+00  0.00000000E+00  0.00000000E+00
  0.00000000E+00  0.00000000E+00  0.00000000E+00
  0.00000000E+00  0.00000000E+00  0.00000000E+00
  0.00000000E+00  0.00000000E+00  0.00000000E+00
  0.00000000E+00  0.00000000E+00  0.00000000E+00
  0.00000000E+00  0.00000000E+00  0.00000000E+00
  0.00000000E+00  0.00000000E+00  0.00000000E+00
  0.00000000E+00  0.00000000E+00  0.00000000E+00
  0.00000000E+00  0.00000000E+00  0.00000000E+00
  0.00000000E+00  0.00000000E+00  0.00000000E+00
  0.00000000E+00  0.00000000E+00  0.00000000E+00
  0.00000000E+00  0.00000000E+00  0.00000000E+00
  0.00000000E+00  0.00000000E+00  0.00000000E+00
  0.00000000E+00  0.00000000E+00  0.00000000E+00
  0.00000000E+00  0.00000000E+00  0.00000000E+00
  0.00000000E+00  0.00000000E+00  0.00000000E+00
  0.00000000E+00  0.00000000E+00  0.00000000E+00
  0.00000000E+00  0.00000000E+00  0.00000000E+00
  0.00000000E+00  0.00000000E+00  0.00000000E+00
  0.00000000E+00  0.00000000E+00  0.00000000E+00
  0.00000000E+00  0.00000000E+00  0.00000000E+00
  0.00000000E+00  0.00000000E+00  0.00000000E+00
  0.00000000E+00  0.00000000E+00  0.00000000E+00
  0.00000000E+00  0.00000000E+00  0.00000000E+00
  0.00000000E+00  0.00000000E+00  0.00000000E+00
  0.00000000E+00  0.00000000E+00  0.00000000E+00
  0.00000000E+00  0.00000000E+00  0.00000000E+00
  0.00000000E+00  0.00000000E+00  0.00000000E+00
  0.00000000E+00  0.00000000E+00  0.00000000E+00
  0.00000000E+00  0.00000000E+00  0.00000000E+00
  0.00000000E+00  0.00000000E+00  0.00000000E+00
  0.00000000E+00  0.00000000E+00  0.00000000E+00
  0.00000000E+00  0.00000000E+00  0.00000000E+00
  0.00000000E+00  0.00000000E+00  0.00000000E+00
  0.00000000E+00  0.00000000E+00  0.00000000E+00
  0.00000000E+00  0.00000000E+00  0.00000000E+00
  0.00000000E+00  0.00000000E+00  0.00000000E+00
  0.00000000E+00  0.00000000E+00  0.00000000E+00
