In12 Ga42 Ag54 Se108                    
   1.0000000000000000     
    16.5088175831220276   -0.0177729110008338   -7.7096525580177673
    -3.6578636439448733   16.0269754436563012   -7.8755351415886814
    -0.0252103300780868    0.1887812023482768   21.4725228194025135
   In   Ga   Ag   Se
    12    42    54   108
Direct
  0.1659702077613758  0.8370391293380663  0.0021208261284400
  0.1664742412491691  0.1670569114112652  0.0007114458612207
  0.5002005163558749  0.5013638919898327  0.3369162028155088
  0.1651827010892930  0.8349168789364114  0.6640172414391685
  0.8315314111550762  0.1661789191699228  0.6655226105978969
  0.5864463216866724  0.4150914766190681  0.1658485187083443
  0.2485059070026310  0.7483961406537958  0.1686013087857816
  0.2495205901843676  0.4139946801390408  0.4987495549955838
  0.2499476308462363  0.4147390618096125  0.8327543339588459
  0.2507287078401816  0.7461218752368595  0.8329246284614698
  0.5848556640692024  0.7503916869808265  0.8335412030830014
  0.9108306259937820  0.7506637119354380  0.8298350846688223
  0.1643033125573723  0.4962747950528055  0.9998009484440473
  0.5031501314461195  0.5029211295031004  0.0003609995870235
  0.8321869653653593  0.5003033852360943  0.0005968620802790
  0.5034365393950964  0.8359273127932170  0.0049735612009911
  0.8344377416321507  0.8352051972500405  0.0043215809439943
  0.5028056397248051  0.1649865954079672  0.9988020303083260
  0.8334270300391324  0.1673370627848243  0.0014073021724528
  0.1641917008731326  0.5006838838038092  0.3309868459512302
  0.8362603291738040  0.5034089056710229  0.3363682617026384
  0.1645121795110853  0.8323346857009000  0.3359098529198832
  0.5028156386182303  0.8358065916758974  0.3349917588871278
  0.8334260571335506  0.8336295571394174  0.3323744367306745
  0.1664922270693481  0.1628279068457701  0.3318324460548894
  0.5000958322266058  0.1672125884811280  0.3333948374388243
  0.8346164468194175  0.1657077391987514  0.3332884969697574
  0.1640206944606533  0.4958422872452886  0.6632495861065308
  0.5039054961981719  0.4970816107861040  0.6665834103451829
  0.8319360857780325  0.4946293613004613  0.6633518526238831
  0.4968097253577426  0.8354545232021309  0.6643298519148146
  0.8294594683577472  0.8365673257805710  0.6635853086320225
  0.1670422366752362  0.1625650093641013  0.6640583293925459
  0.5004979063319297  0.1665762781478790  0.6660777275317002
  0.2490354856852548  0.4208996966031222  0.1675352832685704
  0.9155912931369699  0.4168953135511444  0.1670754412813906
  0.5850196974796233  0.7503414719582224  0.1682802160504693
  0.9161472222363898  0.7501632997987997  0.1678512175708988
  0.2523446858148688  0.0851309025142228  0.1713401528256995
  0.5857984454550760  0.0850308970364253  0.1678896970008168
  0.9171634830699844  0.0839749783650845  0.1675239892717642
  0.5823345742174695  0.4139676144263476  0.5016028598007622
  0.9167822981586795  0.4149866137918039  0.4984794621368209
  0.2502548193741561  0.7483462812446646  0.4974659580251668
  0.5851903956120950  0.7552052537397955  0.5018058221744610
  0.9134535688169336  0.7519959693450033  0.4979760319542734
  0.2497825270081719  0.0820199674179989  0.4990547397022951
  0.5804752027898701  0.0833892428568177  0.4973161140343052
  0.9172825740556405  0.0807314623704443  0.4972942005085272
  0.5834537681167689  0.4162285241941319  0.8334323553917926
  0.9177558009190818  0.4181726269464647  0.8347873025257826
  0.2551954021313563  0.0852730689517216  0.8336045730411428
  0.5840499595093291  0.0832921739834092  0.8331455931344536
  0.9112456515880183  0.0838488739043299  0.8337072821455109
  0.9959967468741127  0.3341214283743810  0.0007885229366025
  0.3348121828163926  0.3340942590677898  0.0017369455580649
  0.6670028373767067  0.3339483089126816  0.9950579260644119
  0.9955495389012725  0.6623604429230383  0.9992829104537009
  0.3412386794597637  0.6685318461166645  0.0044331734218659
  0.6693881674463071  0.6673613276461481  0.0040055965705363
  0.9992834624884921  0.0021485192689923  0.0045979622972041
  0.3381032381349272  0.0052661682235211  0.0039513853754514
  0.6679542435355899  0.0037288662351145  0.0034920326768031
  0.9940422958966693  0.3293277196385489  0.3283200949285998
  0.3315404778853335  0.3342470809808731  0.3311578653942249
  0.6742971001815263  0.3321964914289097  0.3379771316505114
  0.9991009273104012  0.6656950299811655  0.3336917148298966
  0.3375579278485148  0.6691966322535237  0.3391027333412708
  0.6635528124863868  0.6696011646149529  0.3352284073342631
  0.0014214304724334  0.0011043662625880  0.3309930842261650
  0.3321220975112311  0.9987784877217791  0.3355660815279151
  0.6677932504408375  0.0002865757091399  0.3335192931454571
  0.9983406027686144  0.3310321410018275  0.6621591112613743
  0.3375861907076967  0.3324418489057379  0.6665378690640082
  0.6680404388933141  0.3335343471213790  0.6693102547676304
  0.9947106988048517  0.6593117259765364  0.6583861735553924
  0.3334805928364233  0.6654810651262366  0.6630333279365033
  0.6611501716589459  0.6607126916206809  0.6581078075225477
  0.0017679586336854  0.0028158034548866  0.6698407782619000
  0.3358195790572012  0.0018506408595798  0.6639649067369007
  0.6617693847889683  0.9988035124432386  0.6662262074421292
  0.0806180187599210  0.5832026473043186  0.1659875245133478
  0.4178571260164006  0.5849734712078813  0.1649500082922231
  0.7540149760724759  0.5834307233886378  0.1687816912252913
  0.0811568651443793  0.9211761284345528  0.1725820558037867
  0.4230319940730070  0.9213482712053676  0.1721599109739600
  0.7508973978162530  0.9180468119138396  0.1690955032242130
  0.0831023513163629  0.2538143813019857  0.1705453098036926
  0.4165883574948523  0.2469209352232227  0.1673764532618662
  0.7517659833863490  0.2494866466688705  0.1682842909188622
  0.0819306059076155  0.5806858609183578  0.4958777296947403
  0.4183866319826848  0.5897664521002284  0.5042861761764144
  0.7564279954599726  0.5848062632478275  0.5052065515914066
  0.0803538940890860  0.9175283194347017  0.4950836859482521
  0.4177035410788719  0.9181475602943721  0.4987772821686605
  0.7492013759577176  0.9150286112001567  0.4958049965352984
  0.0788473911622063  0.2449674969463658  0.4978405036494138
  0.4170498309279651  0.2459238044231284  0.4987805197927742
  0.7480909980960604  0.2476699383764327  0.4943021162133974
  0.0768378130178533  0.5809283628730597  0.8321817436771042
  0.4184564648241533  0.5824648044720462  0.8307139708137754
  0.7507460509372024  0.5782273830573175  0.8342607376502542
  0.0804204632313912  0.9219395152031993  0.8268850663284582
  0.4187937568358038  0.9178232516321216  0.8364649719938271
  0.7510456945244073  0.9200271521432768  0.8337713038988710
  0.0806444557584882  0.2438141458853096  0.8295372732623605
  0.4190633698275263  0.2478233601162572  0.8346270897045329
  0.7494160211050414  0.2545025319819842  0.8369413782178512
  0.1305354464855029  0.4578852321997218  0.0833957763452915
  0.4638262357236584  0.4607617027436319  0.0784482524947094
  0.8003646731022300  0.4578626309972691  0.0832070827769584
  0.1221923193564791  0.7927798983467440  0.0851175194114830
  0.4706169098907225  0.7952117792848696  0.0881275821023806
  0.8011582949637699  0.7931825661903460  0.0863806811278565
  0.1339495935478610  0.1252321266135752  0.0916313251874143
  0.4720739539654133  0.1275366566925271  0.0847564497173039
  0.8029275106356337  0.1265075131067519  0.0853810200160581
  0.1259121855314618  0.4559138030498460  0.4081276065981356
  0.4649491492899358  0.4579839927562546  0.4252220509698432
  0.8030792191402796  0.4598216175321141  0.4180583194366818
  0.1326116611246277  0.7905616150002714  0.4180898357004139
  0.4690577667898808  0.7934890872878455  0.4168039720543888
  0.7988386441740403  0.7910954907006698  0.4131785341553211
  0.1350011834299778  0.1245243659379582  0.4167653229523935
  0.4653416106475703  0.1225761681615865  0.4132670206307836
  0.8022558763440628  0.1239522947408673  0.4158402811741340
  0.1266684721287206  0.4598026116390272  0.7452871738697340
  0.4694368333764629  0.4577009956649860  0.7495860548154596
  0.8017817496575859  0.4567213616507289  0.7495219169283587
  0.1236199521860399  0.7889692032244398  0.7474519931697472
  0.4610152266237364  0.7940698503439378  0.7448109999500900
  0.7876126059745587  0.7929284698201329  0.7396759991612427
  0.1371056058858144  0.1239838970000875  0.7499785312827996
  0.4697166067314384  0.1254456870677672  0.7500029292771799
  0.7941198142603554  0.1242781295875091  0.7539406799764805
  0.2811126859600677  0.6170176394729125  0.0770060212609565
  0.6194099434828644  0.6260295251495052  0.0873241541362049
  0.9468392291929959  0.6246674827770846  0.0845125913009994
  0.2919311707020285  0.9671075712005788  0.0909149770899091
  0.6185978635890947  0.9602220183416890  0.0860310508822835
  0.9496378944267434  0.9591235413722572  0.0862685621220365
  0.2895557382367429  0.3000132317503201  0.0907440135604105
  0.6208395295342086  0.2840896238147295  0.0761007983823774
  0.9485485465372818  0.2922886634228092  0.0849500847090141
  0.2821666575279522  0.6230213626093999  0.4162565919330490
  0.6245178368249711  0.6332487471384809  0.4257470930440306
  0.9501356578115079  0.6279513498949072  0.4192703666161179
  0.2804019101590711  0.9563041126082368  0.4165367288169790
  0.6168584181770029  0.9602780863488292  0.4170792222557935
  0.9477258143863168  0.9579790521094864  0.4116642404979203
  0.2842013960047822  0.2821629302309532  0.4100824068934230
  0.6139043380056819  0.2918550866025384  0.4160016932235564
  0.9490080686998965  0.2903503455090544  0.4154708037898374
  0.2833316650716711  0.6148572206096006  0.7409562385896393
  0.6207623917523790  0.6177398200461042  0.7455656228033618
  0.9467493674747161  0.6173494307413492  0.7422309360304453
  0.2915722497310824  0.9649144061866579  0.7528317928870649
  0.6141933510669801  0.9578556397177351  0.7500890408970164
  0.9439974955633232  0.9617258091927425  0.7485516726059771
  0.2851937259898278  0.2824136052156874  0.7444132136552071
  0.6154892973131183  0.2916823053734703  0.7504504175128730
  0.9548674849674583  0.2983445647981569  0.7534520294881588
  0.2081509854584240  0.3865195537105919  0.2498300825828821
  0.5449635546942417  0.3758186156024621  0.2527388492748344
  0.8727336869778384  0.3860629207023223  0.2499219461257525
  0.2064722151973015  0.7147504498345114  0.2583358112814125
  0.5412085486410660  0.7187597502974441  0.2503613405253873
  0.8758847150382678  0.7182798694100470  0.2511341243511538
  0.2091277778535385  0.0481426554658668  0.2508621214673639
  0.5456965752211289  0.0547760417537475  0.2523807190463287
  0.8754745120748950  0.0509745733212483  0.2498375668801174
  0.2049800494396834  0.3769691912164035  0.5858039314619887
  0.5417287400943138  0.3793394807798691  0.5834148002672279
  0.8730107535868967  0.3803359394780443  0.5791002459611789
  0.2089268261582902  0.7104438528522650  0.5765167411493337
  0.5412376546025257  0.7219796036586388  0.5829524364337360
  0.8750856786412982  0.7223223146752105  0.5838274771037533
  0.2074287705157118  0.0475748477139248  0.5803507903508418
  0.5413937458525595  0.0518369663215381  0.5821376314987603
  0.8768348454591788  0.0440372441006645  0.5775574361784592
  0.2041818988681925  0.3786241876887573  0.9196463992102224
  0.5407550941151626  0.3846246793863202  0.9157983502954181
  0.8739771373715328  0.3861263339974599  0.9169817695726152
  0.2079524276123692  0.7072090679925580  0.9192705826349652
  0.5415894854667656  0.7170648190496678  0.9233524441821501
  0.8708375957130201  0.7163733255452271  0.9209239931063067
  0.2126799132197164  0.0457759069820440  0.9118305101972126
  0.5432963370145814  0.0497724521474154  0.9159183227488938
  0.8760182494060089  0.0521950421999335  0.9199418588021189
  0.0391687702925481  0.5326206044874127  0.2488267532386743
  0.3702536754766115  0.5374735461678384  0.2465054663682764
  0.7157401904331095  0.5416213001555690  0.2575517177254625
  0.0412028749744380  0.8642011018750608  0.2518224445140120
  0.3812460441717036  0.8716509431813648  0.2548162159140617
  0.7085105410941139  0.8659774535261846  0.2506054587621449
  0.0422663215480696  0.1977901295528639  0.2510531936332825
  0.3756228401544561  0.2003538094877086  0.2519024325658421
  0.7110989753216188  0.1991606023575940  0.2510714647567411
  0.0415846124266963  0.5290845259737438  0.5788501735819978
  0.3833634412845939  0.5355315281822399  0.5880476245882065
  0.7076682279356348  0.5278644782799375  0.5810483936447213
  0.0330369349494930  0.8698434798436665  0.5761365407759342
  0.3729642622970815  0.8657570731683819  0.5794732492623709
  0.7072178054990488  0.8713846230895541  0.5818078312147321
  0.0414570889724004  0.1961248802991093  0.5831996224002722
  0.3750967679948545  0.1966749691225331  0.5819686091754335
  0.7001914983996471  0.2010246246223630  0.5761469138284596
  0.0414755937597775  0.5328273959430518  0.9187830504565895
  0.3824099084317538  0.5383200184825441  0.9192317332464768
  0.7073037111302725  0.5323858747272752  0.9180871790625389
  0.0394469191623443  0.8767591574928417  0.9134586740874227
  0.3822281897468187  0.8716079138503048  0.9233675039312175
  0.7165063928062096  0.8744737127942770  0.9232334770789521
  0.0323804554142910  0.2005129029656629  0.9120552821819956
  0.3783766532921931  0.2015649587365260  0.9199580102298199
  0.7089804744031198  0.1977551337572478  0.9167717419128749

  0.00000000E+00  0.00000000E+00  0.00000000E+00
  0.00000000E+00  0.00000000E+00  0.00000000E+00
  0.00000000E+00  0.00000000E+00  0.00000000E+00
  0.00000000E+00  0.00000000E+00  0.00000000E+00
  0.00000000E+00  0.00000000E+00  0.00000000E+00
  0.00000000E+00  0.00000000E+00  0.00000000E+00
  0.00000000E+00  0.00000000E+00  0.00000000E+00
  0.00000000E+00  0.00000000E+00  0.00000000E+00
  0.00000000E+00  0.00000000E+00  0.00000000E+00
  0.00000000E+00  0.00000000E+00  0.00000000E+00
  0.00000000E+00  0.00000000E+00  0.00000000E+00
  0.00000000E+00  0.00000000E+00  0.00000000E+00
  0.00000000E+00  0.00000000E+00  0.00000000E+00
  0.00000000E+00  0.00000000E+00  0.00000000E+00
  0.00000000E+00  0.00000000E+00  0.00000000E+00
  0.00000000E+00  0.00000000E+00  0.00000000E+00
  0.00000000E+00  0.00000000E+00  0.00000000E+00
  0.00000000E+00  0.00000000E+00  0.00000000E+00
  0.00000000E+00  0.00000000E+00  0.00000000E+00
  0.00000000E+00  0.00000000E+00  0.00000000E+00
  0.00000000E+00  0.00000000E+00  0.00000000E+00
  0.00000000E+00  0.00000000E+00  0.00000000E+00
  0.00000000E+00  0.00000000E+00  0.00000000E+00
  0.00000000E+00  0.00000000E+00  0.00000000E+00
  0.00000000E+00  0.00000000E+00  0.00000000E+00
  0.00000000E+00  0.00000000E+00  0.00000000E+00
  0.00000000E+00  0.00000000E+00  0.00000000E+00
  0.00000000E+00  0.00000000E+00  0.00000000E+00
  0.00000000E+00  0.00000000E+00  0.00000000E+00
  0.00000000E+00  0.00000000E+00  0.00000000E+00
  0.00000000E+00  0.00000000E+00  0.00000000E+00
  0.00000000E+00  0.00000000E+00  0.00000000E+00
  0.00000000E+00  0.00000000E+00  0.00000000E+00
  0.00000000E+00  0.00000000E+00  0.00000000E+00
  0.00000000E+00  0.00000000E+00  0.00000000E+00
  0.00000000E+00  0.00000000E+00  0.00000000E+00
  0.00000000E+00  0.00000000E+00  0.00000000E+00
  0.00000000E+00  0.00000000E+00  0.00000000E+00
  0.00000000E+00  0.00000000E+00  0.00000000E+00
  0.00000000E+00  0.00000000E+00  0.00000000E+00
  0.00000000E+00  0.00000000E+00  0.00000000E+00
  0.00000000E+00  0.00000000E+00  0.00000000E+00
  0.00000000E+00  0.00000000E+00  0.00000000E+00
  0.00000000E+00  0.00000000E+00  0.00000000E+00
  0.00000000E+00  0.00000000E+00  0.00000000E+00
  0.00000000E+00  0.00000000E+00  0.00000000E+00
  0.00000000E+00  0.00000000E+00  0.00000000E+00
  0.00000000E+00  0.00000000E+00  0.00000000E+00
  0.00000000E+00  0.00000000E+00  0.00000000E+00
  0.00000000E+00  0.00000000E+00  0.00000000E+00
  0.00000000E+00  0.00000000E+00  0.00000000E+00
  0.00000000E+00  0.00000000E+00  0.00000000E+00
  0.00000000E+00  0.00000000E+00  0.00000000E+00
  0.00000000E+00  0.00000000E+00  0.00000000E+00
  0.00000000E+00  0.00000000E+00  0.00000000E+00
  0.00000000E+00  0.00000000E+00  0.00000000E+00
  0.00000000E+00  0.00000000E+00  0.00000000E+00
  0.00000000E+00  0.00000000E+00  0.00000000E+00
  0.00000000E+00  0.00000000E+00  0.00000000E+00
  0.00000000E+00  0.00000000E+00  0.00000000E+00
  0.00000000E+00  0.00000000E+00  0.00000000E+00
  0.00000000E+00  0.00000000E+00  0.00000000E+00
  0.00000000E+00  0.00000000E+00  0.00000000E+00
  0.00000000E+00  0.00000000E+00  0.00000000E+00
  0.00000000E+00  0.00000000E+00  0.00000000E+00
  0.00000000E+00  0.00000000E+00  0.00000000E+00
  0.00000000E+00  0.00000000E+00  0.00000000E+00
  0.00000000E+00  0.00000000E+00  0.00000000E+00
  0.00000000E+00  0.00000000E+00  0.00000000E+00
  0.00000000E+00  0.00000000E+00  0.00000000E+00
  0.00000000E+00  0.00000000E+00  0.00000000E+00
  0.00000000E+00  0.00000000E+00  0.00000000E+00
  0.00000000E+00  0.00000000E+00  0.00000000E+00
  0.00000000E+00  0.00000000E+00  0.00000000E+00
  0.00000000E+00  0.00000000E+00  0.00000000E+00
  0.00000000E+00  0.00000000E+00  0.00000000E+00
  0.00000000E+00  0.00000000E+00  0.00000000E+00
  0.00000000E+00  0.00000000E+00  0.00000000E+00
  0.00000000E+00  0.00000000E+00  0.00000000E+00
  0.00000000E+00  0.00000000E+00  0.00000000E+00
  0.00000000E+00  0.00000000E+00  0.00000000E+00
  0.00000000E+00  0.00000000E+00  0.00000000E+00
  0.00000000E+00  0.00000000E+00  0.00000000E+00
  0.00000000E+00  0.00000000E+00  0.00000000E+00
  0.00000000E+00  0.00000000E+00  0.00000000E+00
  0.00000000E+00  0.00000000E+00  0.00000000E+00
  0.00000000E+00  0.00000000E+00  0.00000000E+00
  0.00000000E+00  0.00000000E+00  0.00000000E+00
  0.00000000E+00  0.00000000E+00  0.00000000E+00
  0.00000000E+00  0.00000000E+00  0.00000000E+00
  0.00000000E+00  0.00000000E+00  0.00000000E+00
  0.00000000E+00  0.00000000E+00  0.00000000E+00
  0.00000000E+00  0.00000000E+00  0.00000000E+00
  0.00000000E+00  0.00000000E+00  0.00000000E+00
  0.00000000E+00  0.00000000E+00  0.00000000E+00
  0.00000000E+00  0.00000000E+00  0.00000000E+00
  0.00000000E+00  0.00000000E+00  0.00000000E+00
  0.00000000E+00  0.00000000E+00  0.00000000E+00
  0.00000000E+00  0.00000000E+00  0.00000000E+00
  0.00000000E+00  0.00000000E+00  0.00000000E+00
  0.00000000E+00  0.00000000E+00  0.00000000E+00
  0.00000000E+00  0.00000000E+00  0.00000000E+00
  0.00000000E+00  0.00000000E+00  0.00000000E+00
  0.00000000E+00  0.00000000E+00  0.00000000E+00
  0.00000000E+00  0.00000000E+00  0.00000000E+00
  0.00000000E+00  0.00000000E+00  0.00000000E+00
  0.00000000E+00  0.00000000E+00  0.00000000E+00
  0.00000000E+00  0.00000000E+00  0.00000000E+00
  0.00000000E+00  0.00000000E+00  0.00000000E+00
  0.00000000E+00  0.00000000E+00  0.00000000E+00
  0.00000000E+00  0.00000000E+00  0.00000000E+00
  0.00000000E+00  0.00000000E+00  0.00000000E+00
  0.00000000E+00  0.00000000E+00  0.00000000E+00
  0.00000000E+00  0.00000000E+00  0.00000000E+00
  0.00000000E+00  0.00000000E+00  0.00000000E+00
  0.00000000E+00  0.00000000E+00  0.00000000E+00
  0.00000000E+00  0.00000000E+00  0.00000000E+00
  0.00000000E+00  0.00000000E+00  0.00000000E+00
  0.00000000E+00  0.00000000E+00  0.00000000E+00
  0.00000000E+00  0.00000000E+00  0.00000000E+00
  0.00000000E+00  0.00000000E+00  0.00000000E+00
  0.00000000E+00  0.00000000E+00  0.00000000E+00
  0.00000000E+00  0.00000000E+00  0.00000000E+00
  0.00000000E+00  0.00000000E+00  0.00000000E+00
  0.00000000E+00  0.00000000E+00  0.00000000E+00
  0.00000000E+00  0.00000000E+00  0.00000000E+00
  0.00000000E+00  0.00000000E+00  0.00000000E+00
  0.00000000E+00  0.00000000E+00  0.00000000E+00
  0.00000000E+00  0.00000000E+00  0.00000000E+00
  0.00000000E+00  0.00000000E+00  0.00000000E+00
  0.00000000E+00  0.00000000E+00  0.00000000E+00
  0.00000000E+00  0.00000000E+00  0.00000000E+00
  0.00000000E+00  0.00000000E+00  0.00000000E+00
  0.00000000E+00  0.00000000E+00  0.00000000E+00
  0.00000000E+00  0.00000000E+00  0.00000000E+00
  0.00000000E+00  0.00000000E+00  0.00000000E+00
  0.00000000E+00  0.00000000E+00  0.00000000E+00
  0.00000000E+00  0.00000000E+00  0.00000000E+00
  0.00000000E+00  0.00000000E+00  0.00000000E+00
  0.00000000E+00  0.00000000E+00  0.00000000E+00
  0.00000000E+00  0.00000000E+00  0.00000000E+00
  0.00000000E+00  0.00000000E+00  0.00000000E+00
  0.00000000E+00  0.00000000E+00  0.00000000E+00
  0.00000000E+00  0.00000000E+00  0.00000000E+00
  0.00000000E+00  0.00000000E+00  0.00000000E+00
  0.00000000E+00  0.00000000E+00  0.00000000E+00
  0.00000000E+00  0.00000000E+00  0.00000000E+00
  0.00000000E+00  0.00000000E+00  0.00000000E+00
  0.00000000E+00  0.00000000E+00  0.00000000E+00
  0.00000000E+00  0.00000000E+00  0.00000000E+00
  0.00000000E+00  0.00000000E+00  0.00000000E+00
  0.00000000E+00  0.00000000E+00  0.00000000E+00
  0.00000000E+00  0.00000000E+00  0.00000000E+00
  0.00000000E+00  0.00000000E+00  0.00000000E+00
  0.00000000E+00  0.00000000E+00  0.00000000E+00
  0.00000000E+00  0.00000000E+00  0.00000000E+00
  0.00000000E+00  0.00000000E+00  0.00000000E+00
  0.00000000E+00  0.00000000E+00  0.00000000E+00
  0.00000000E+00  0.00000000E+00  0.00000000E+00
  0.00000000E+00  0.00000000E+00  0.00000000E+00
  0.00000000E+00  0.00000000E+00  0.00000000E+00
  0.00000000E+00  0.00000000E+00  0.00000000E+00
  0.00000000E+00  0.00000000E+00  0.00000000E+00
  0.00000000E+00  0.00000000E+00  0.00000000E+00
  0.00000000E+00  0.00000000E+00  0.00000000E+00
  0.00000000E+00  0.00000000E+00  0.00000000E+00
  0.00000000E+00  0.00000000E+00  0.00000000E+00
  0.00000000E+00  0.00000000E+00  0.00000000E+00
  0.00000000E+00  0.00000000E+00  0.00000000E+00
  0.00000000E+00  0.00000000E+00  0.00000000E+00
  0.00000000E+00  0.00000000E+00  0.00000000E+00
  0.00000000E+00  0.00000000E+00  0.00000000E+00
  0.00000000E+00  0.00000000E+00  0.00000000E+00
  0.00000000E+00  0.00000000E+00  0.00000000E+00
  0.00000000E+00  0.00000000E+00  0.00000000E+00
  0.00000000E+00  0.00000000E+00  0.00000000E+00
  0.00000000E+00  0.00000000E+00  0.00000000E+00
  0.00000000E+00  0.00000000E+00  0.00000000E+00
  0.00000000E+00  0.00000000E+00  0.00000000E+00
  0.00000000E+00  0.00000000E+00  0.00000000E+00
  0.00000000E+00  0.00000000E+00  0.00000000E+00
  0.00000000E+00  0.00000000E+00  0.00000000E+00
  0.00000000E+00  0.00000000E+00  0.00000000E+00
  0.00000000E+00  0.00000000E+00  0.00000000E+00
  0.00000000E+00  0.00000000E+00  0.00000000E+00
  0.00000000E+00  0.00000000E+00  0.00000000E+00
  0.00000000E+00  0.00000000E+00  0.00000000E+00
  0.00000000E+00  0.00000000E+00  0.00000000E+00
  0.00000000E+00  0.00000000E+00  0.00000000E+00
  0.00000000E+00  0.00000000E+00  0.00000000E+00
  0.00000000E+00  0.00000000E+00  0.00000000E+00
  0.00000000E+00  0.00000000E+00  0.00000000E+00
  0.00000000E+00  0.00000000E+00  0.00000000E+00
  0.00000000E+00  0.00000000E+00  0.00000000E+00
  0.00000000E+00  0.00000000E+00  0.00000000E+00
  0.00000000E+00  0.00000000E+00  0.00000000E+00
  0.00000000E+00  0.00000000E+00  0.00000000E+00
  0.00000000E+00  0.00000000E+00  0.00000000E+00
  0.00000000E+00  0.00000000E+00  0.00000000E+00
  0.00000000E+00  0.00000000E+00  0.00000000E+00
  0.00000000E+00  0.00000000E+00  0.00000000E+00
  0.00000000E+00  0.00000000E+00  0.00000000E+00
  0.00000000E+00  0.00000000E+00  0.00000000E+00
  0.00000000E+00  0.00000000E+00  0.00000000E+00
  0.00000000E+00  0.00000000E+00  0.00000000E+00
  0.00000000E+00  0.00000000E+00  0.00000000E+00
  0.00000000E+00  0.00000000E+00  0.00000000E+00
  0.00000000E+00  0.00000000E+00  0.00000000E+00
  0.00000000E+00  0.00000000E+00  0.00000000E+00
  0.00000000E+00  0.00000000E+00  0.00000000E+00
  0.00000000E+00  0.00000000E+00  0.00000000E+00
  0.00000000E+00  0.00000000E+00  0.00000000E+00
  0.00000000E+00  0.00000000E+00  0.00000000E+00
  0.00000000E+00  0.00000000E+00  0.00000000E+00
  0.00000000E+00  0.00000000E+00  0.00000000E+00
  0.00000000E+00  0.00000000E+00  0.00000000E+00
