In54 Cu18 Ag36 Se108                    
   1.0000000000000000     
    16.6397708810340781   -0.0171275655143465   -7.4140659228815950
    -3.2882656226180957   16.3039308649468708   -7.4180015961660386
    -0.0779809751925590   -0.0701490373163603   22.2064122357404159
   In   Cu   Ag   Se
    54    18    36   108
Direct
  0.1682483594893966  0.4944204652953417  0.0009828325700028
  0.4972168064431344  0.4967894358347067  0.9992431174389580
  0.8334401338028812  0.4927739502788029  0.9978135727775950
  0.1704126396929766  0.8368062891962396  0.0000079015979324
  0.4992180386320939  0.8358848189686299  0.0001857370799172
  0.8312292706105566  0.8374320120441823  0.0028285145723430
  0.1690006963528532  0.1683547751972299  0.9978452349605220
  0.4971907967834852  0.1667671048220640  0.9979705682603566
  0.8310691514634101  0.1675366228802204  0.9966835847895084
  0.1680774813921388  0.4964195822393549  0.3362038512137957
  0.4964837980412113  0.4945340903612063  0.3336723734242497
  0.8370248439599877  0.4947190784236852  0.3335905343651433
  0.1645479131599075  0.8319614187226350  0.3332388332557059
  0.4990706639000848  0.8349675930037748  0.3330630482965233
  0.8378163069578477  0.8324995863595390  0.3352086096325166
  0.1638866846332405  0.1730337098149164  0.3320622280135908
  0.5008785657381765  0.1719946707730031  0.3331608784119098
  0.8362128512939790  0.1730478176728809  0.3349370953675077
  0.1685676910664498  0.4964338248155968  0.6659503664846795
  0.4976997821039433  0.5017357307668036  0.6672014083672195
  0.8337209891698478  0.4998370408862627  0.6680811319877975
  0.1683017342950279  0.8293197036331961  0.6661003518644790
  0.4973895120947063  0.8267660614054790  0.6646604435546308
  0.8304197900415744  0.8300457659020566  0.6658221090127512
  0.1685381537038921  0.1726429772905433  0.6662322488873826
  0.4989623342339939  0.1718786873513238  0.6704193311439113
  0.8349717792533724  0.1700345072965490  0.6656277503296764
  0.2483119161274701  0.4114544411479031  0.1638117148518461
  0.5828268627097373  0.4139149274990501  0.1677375511674413
  0.9203399205328253  0.4150665297018108  0.1682012581998293
  0.2524610616054588  0.7519066421440215  0.1660916132440704
  0.5823787143627115  0.7516304360795516  0.1684639424860563
  0.9166543134911933  0.7454971666513401  0.1673776506432390
  0.2541696363836579  0.0876496839836776  0.1680627473096408
  0.5811969782864210  0.0846049634615724  0.1646988491443508
  0.9131554402484667  0.0886504193918398  0.1656235118930312
  0.2484401930221765  0.4158809374674419  0.5002845951155095
  0.5807840932343282  0.4192956629950046  0.5017508471130157
  0.9220565354017793  0.4157254217083732  0.5007164433907008
  0.2481451671620434  0.7422967776254268  0.4989455184605589
  0.5797353566712502  0.7456946192455405  0.4998662616768854
  0.9209627934636018  0.7456062992684664  0.4995423684094860
  0.2490976631579187  0.0907711733970302  0.5009618780431779
  0.5822219391220997  0.0861686858415780  0.5006137924014809
  0.9197866545941196  0.0890410802799693  0.5007645221377359
  0.2538615249027316  0.4165212714340143  0.8329167464835905
  0.5783946726675566  0.4144140911908778  0.8325121171899994
  0.9187426918141597  0.4122235289174156  0.8325937415157156
  0.2538844065843406  0.7491555791883897  0.8348912794495007
  0.5803752549759622  0.7496699177493227  0.8339576725458215
  0.9140094791385778  0.7500647117323780  0.8326422995870431
  0.2522362534430656  0.0846565251977154  0.8325289917760799
  0.5815876148628121  0.0844352380041329  0.8317911627075105
  0.9137631588380870  0.0863872762399183  0.8326010428128399
  0.9965175224095049  0.3298725777792697  0.9958149479771379
  0.3361805863002019  0.3286507876603082  0.9957045748748143
  0.3330530374407701  0.0008249522926889  0.0024353551720822
  0.6657982188142455  0.0023198355127647  0.9994814478443104
  0.0033143453111393  0.3358703597996069  0.3393520697072034
  0.3346952211182739  0.3381033275125347  0.3354007254520539
  0.6677943633831802  0.3353696487016791  0.3351744124690583
  0.0016458739282044  0.6599016078358702  0.3356346395938132
  0.0029169657958832  0.3322104099891163  0.6635739085861303
  0.3333106226121387  0.3371987281687012  0.6700834831175086
  0.6615375411579905  0.6647485188620905  0.6647542560074129
  0.4149283242540349  0.9213789486047688  0.1647448658943489
  0.0812875184411439  0.5783958196528047  0.4946051403624452
  0.4196976958115926  0.5798734159313170  0.5015674647603774
  0.0863785308939455  0.2566628638661115  0.5036503432269228
  0.4166450284226997  0.5775850074059150  0.8314595321082194
  0.4129666743241884  0.2521733202985530  0.8326477705641295
  0.7531859223962982  0.2522418419730599  0.8341269963524951
  0.6635223876175118  0.3282791648222769  0.9954608772114497
  0.0008262363946301  0.6675626881618015  0.9998690627261269
  0.3415026830287147  0.6699829573748630  0.0043005112442032
  0.6601955865759308  0.6663589740962053  0.9978736986817296
  0.9999312492328869  0.0030456529247544  0.9989943420049201
  0.3316840813463671  0.6619463844061855  0.3355862539836423
  0.6685457119623308  0.6625001796399843  0.3347727809764720
  0.0033768658130526  0.0084947359020333  0.3352714180717484
  0.3342751494336085  0.9994464397920666  0.3298356627670245
  0.6633968704508746  0.0025779047482288  0.3302558849848509
  0.6681121598858084  0.3337332849449197  0.6715185210965799
  0.0017007111025791  0.6609572169954561  0.6641612336107627
  0.3288621280604289  0.6609831166916393  0.6651752849708998
  0.0018772136565346  0.0002447243345998  0.6674875720640472
  0.3331686240085077  0.0036518832043271  0.6652830864058430
  0.6678281589836033  0.0054589568368897  0.6672490503441395
  0.0857857222094154  0.5793261729850983  0.1674408501264750
  0.4192542137800572  0.5792133328372202  0.1650565511518209
  0.7549724524832584  0.5864012073140827  0.1690697633370561
  0.0821478233268991  0.9177733016133587  0.1672641474656942
  0.7458595830223729  0.9180913694704529  0.1641852785936351
  0.0816242261630862  0.2519421641165849  0.1664504705849694
  0.4157323682539982  0.2501853485453722  0.1652462799155856
  0.7531392719640095  0.2490474839510739  0.1706743914056972
  0.7497442629220998  0.5759203365473269  0.5002761615684648
  0.0844457045252156  0.9089046915017605  0.4952035237096339
  0.4115340365755173  0.9173365823879891  0.4993212394272035
  0.7503432644656201  0.9155430955997303  0.5002911399709973
  0.4103189164120735  0.2530101532677875  0.4995227701822174
  0.7522391411673297  0.2580492966026426  0.5002139027529751
  0.0859816342553827  0.5793857705059224  0.8327951345908744
  0.7453718564485214  0.5856470782304442  0.8340827430505229
  0.0878956104070596  0.9205899922809451  0.8339807831405253
  0.4199199372350293  0.9211253499409651  0.8396772542121838
  0.7434383769328790  0.9102772283516884  0.8309915530647345
  0.0843239031999872  0.2560623221355058  0.8357424377352132
  0.1155830706111942  0.4460209198778244  0.0772812466914274
  0.4513853636103278  0.4469583454003896  0.0781442146089759
  0.7912945087116725  0.4546920137271400  0.0838070509448912
  0.1265231853328075  0.7944475399110260  0.0830348667877061
  0.4591867754222889  0.8046637410974213  0.0913649355989321
  0.7901938037309151  0.7893905611661793  0.0845155878564299
  0.1274671476640279  0.1277466534441061  0.0828663767584317
  0.4490100407327304  0.1183800530710002  0.0766668561590720
  0.7818686593513320  0.1199648328717231  0.0754923831342111
  0.1162492669662569  0.4564490059371806  0.4178554162991972
  0.4481297452965975  0.4579686385273618  0.4183392259043401
  0.7884237274154842  0.4483127381406220  0.4132866750384352
  0.1188458668741177  0.7773099844256350  0.4097981742231980
  0.4558604287045185  0.7914132392438162  0.4163140164588128
  0.7944873965184556  0.7892937656748416  0.4177651817610766
  0.1237752349682069  0.1402012949390681  0.4226990949502394
  0.4577437688363233  0.1296171767394299  0.4168200124600858
  0.7916627206861051  0.1281462147281118  0.4159942627000603
  0.1200654928656348  0.4485572151387842  0.7447361788900011
  0.4486817595005093  0.4582270424332080  0.7491440734353247
  0.7935442112139199  0.4599976628447706  0.7539934652357871
  0.1265099889070100  0.7892504362499935  0.7506484742125821
  0.4532783809439636  0.7905293729781846  0.7501931613034145
  0.7804854888350619  0.7811932970197901  0.7433735555625063
  0.1262047975479206  0.1285719159965382  0.7499591363196032
  0.4539784248939753  0.1346509959054245  0.7564023234471904
  0.7897579972595636  0.1361802549410740  0.7529587698318281
  0.2921559541874572  0.6227775676620482  0.0829856310799855
  0.6232450940518603  0.6235197497557792  0.0848935889894307
  0.9583529691925250  0.6207005181796035  0.0817868516343978
  0.3015247560465042  0.9622154866768895  0.0843914908878105
  0.6262940742862284  0.9631422109210490  0.0770135378118368
  0.9576277699204638  0.9627118325055122  0.0842680481589682
  0.2958513743158449  0.2941045642921338  0.0755741175424021
  0.6259768634705125  0.2894243334286983  0.0838588068609099
  0.9600236772380413  0.2930420158022926  0.0764459381356204
  0.3004808675298847  0.6176812712544191  0.4237789587068903
  0.6229558568684013  0.6202155035131938  0.4169597824889095
  0.9675791427606342  0.6201744875417532  0.4160535368680627
  0.2877372998387528  0.9618905803241304  0.4150725542746301
  0.6253081542983594  0.9604398058906014  0.4173293916766880
  0.9613085947466118  0.9612112438227030  0.4176565164025092
  0.2919647873774380  0.2972284280715058  0.4102941287132111
  0.6274213927592527  0.2996569841909960  0.4138439199617920
  0.9715109747356152  0.2928287929027178  0.4189149031950095
  0.2996239682500814  0.6193114998410252  0.7560278030515661
  0.6247233601713518  0.6288215005918047  0.7458104443485709
  0.9598336698078995  0.6250533523306316  0.7514013346023560
  0.2933608030476833  0.9570781455029973  0.7489659794249164
  0.6204063754474589  0.9562470695690237  0.7460738677147205
  0.9556973869652055  0.9583026638611898  0.7499453970403707
  0.3025982386564294  0.2932092273819293  0.7500468591363685
  0.6326539338185455  0.2906380092276919  0.7580658739975732
  0.9633223697484894  0.2946168144306540  0.7424214724548008
  0.2156977831542264  0.3713173245501622  0.2544146833400518
  0.5491917371604913  0.3710146080705599  0.2562326841113602
  0.8860568241775155  0.3688242399433648  0.2553301916368866
  0.2104104985698569  0.7086787539242536  0.2499118192682062
  0.5425814127564266  0.7074389328510620  0.2520310945038347
  0.8874873852754277  0.7046729801875387  0.2590956301942242
  0.2066190541514104  0.0457826911248134  0.2496957912826971
  0.5320363003722832  0.0382148717764963  0.2440131849292158
  0.8726527134248059  0.0444819525168043  0.2488600697507763
  0.2118740937046084  0.3659704866449331  0.5848882551237011
  0.5417437454632932  0.3748727640996350  0.5860834572386864
  0.8864250199718526  0.3762979795679655  0.5900150409039071
  0.1983401812477084  0.6955017383685984  0.5770200646232908
  0.5393936818386891  0.6951624113692390  0.5823353140231120
  0.8746218424348342  0.7048031310665834  0.5820845549347027
  0.2047143614622726  0.0426042660163333  0.5802601637655300
  0.5373182739861875  0.0447556016889479  0.5836834350000544
  0.8764482956131090  0.0433101034148109  0.5825752076458102
  0.2206481015072868  0.3726544379049770  0.9214192664813439
  0.5318695830913853  0.3663427729645719  0.9116049074620420
  0.8760861561607030  0.3628174855008623  0.9145767959802882
  0.2106145363099543  0.7073012965261043  0.9180668070622033
  0.5290224840151154  0.7003802556188106  0.9105071074567874
  0.8730102774826847  0.7111490800593643  0.9185805674400669
  0.2188561862533405  0.0415575814281937  0.9216411471978887
  0.5502351678521080  0.0427272683090010  0.9218121783150295
  0.8702747711238459  0.0388911430767962  0.9127949654578558
  0.0429942050771501  0.5462490407797560  0.2566797529295357
  0.3735772465266081  0.5380394826165400  0.2483068582120680
  0.7111329171060419  0.5378261311484351  0.2499504291940511
  0.0392443795376494  0.8753707789355971  0.2505191208761772
  0.3787419578969207  0.8786581399050206  0.2428935828846903
  0.7109177682017673  0.8747244174021347  0.2513516254924610
  0.0357401501551422  0.2198356789775886  0.2538208908413537
  0.3734009776116167  0.2214424880044561  0.2566447154029277
  0.7040806793775758  0.2167104629588295  0.2564271199474817
  0.0483306899463685  0.5422832610322814  0.5774339799184176
  0.3753778473903040  0.5423837292263869  0.5775919658453930
  0.7052942597147194  0.5481514017154012  0.5903672779978280
  0.0438537735080047  0.8738853361564622  0.5837648728248936
  0.3712493657974250  0.8709324364873581  0.5823995112881590
  0.7049053802358642  0.8734409239271343  0.5830545784666938
  0.0438678771606646  0.2209167719000291  0.5825119096134728
  0.3731584505073755  0.2210252997566116  0.5912709002663306
  0.7083250524758569  0.2115991075048171  0.5819933014314245
  0.0437417402437035  0.5386689048552569  0.9180474704043462
  0.3788008718255682  0.5452233016969785  0.9129769542448827
  0.7061405093575175  0.5386084597987519  0.9172729786073859
  0.0413497584334621  0.8757943975486810  0.9152616707566068
  0.3714164792783947  0.8839882187300461  0.9232113849908643
  0.7019437355007199  0.8818555925524336  0.9227150318075488
  0.0392566979166418  0.2147684504907375  0.9195297958369437
  0.3755241402035097  0.2163885645952561  0.9137336712494175
  0.7097584762802782  0.2098646471332302  0.9078614831869061

  0.00000000E+00  0.00000000E+00  0.00000000E+00
  0.00000000E+00  0.00000000E+00  0.00000000E+00
  0.00000000E+00  0.00000000E+00  0.00000000E+00
  0.00000000E+00  0.00000000E+00  0.00000000E+00
  0.00000000E+00  0.00000000E+00  0.00000000E+00
  0.00000000E+00  0.00000000E+00  0.00000000E+00
  0.00000000E+00  0.00000000E+00  0.00000000E+00
  0.00000000E+00  0.00000000E+00  0.00000000E+00
  0.00000000E+00  0.00000000E+00  0.00000000E+00
  0.00000000E+00  0.00000000E+00  0.00000000E+00
  0.00000000E+00  0.00000000E+00  0.00000000E+00
  0.00000000E+00  0.00000000E+00  0.00000000E+00
  0.00000000E+00  0.00000000E+00  0.00000000E+00
  0.00000000E+00  0.00000000E+00  0.00000000E+00
  0.00000000E+00  0.00000000E+00  0.00000000E+00
  0.00000000E+00  0.00000000E+00  0.00000000E+00
  0.00000000E+00  0.00000000E+00  0.00000000E+00
  0.00000000E+00  0.00000000E+00  0.00000000E+00
  0.00000000E+00  0.00000000E+00  0.00000000E+00
  0.00000000E+00  0.00000000E+00  0.00000000E+00
  0.00000000E+00  0.00000000E+00  0.00000000E+00
  0.00000000E+00  0.00000000E+00  0.00000000E+00
  0.00000000E+00  0.00000000E+00  0.00000000E+00
  0.00000000E+00  0.00000000E+00  0.00000000E+00
  0.00000000E+00  0.00000000E+00  0.00000000E+00
  0.00000000E+00  0.00000000E+00  0.00000000E+00
  0.00000000E+00  0.00000000E+00  0.00000000E+00
  0.00000000E+00  0.00000000E+00  0.00000000E+00
  0.00000000E+00  0.00000000E+00  0.00000000E+00
  0.00000000E+00  0.00000000E+00  0.00000000E+00
  0.00000000E+00  0.00000000E+00  0.00000000E+00
  0.00000000E+00  0.00000000E+00  0.00000000E+00
  0.00000000E+00  0.00000000E+00  0.00000000E+00
  0.00000000E+00  0.00000000E+00  0.00000000E+00
  0.00000000E+00  0.00000000E+00  0.00000000E+00
  0.00000000E+00  0.00000000E+00  0.00000000E+00
  0.00000000E+00  0.00000000E+00  0.00000000E+00
  0.00000000E+00  0.00000000E+00  0.00000000E+00
  0.00000000E+00  0.00000000E+00  0.00000000E+00
  0.00000000E+00  0.00000000E+00  0.00000000E+00
  0.00000000E+00  0.00000000E+00  0.00000000E+00
  0.00000000E+00  0.00000000E+00  0.00000000E+00
  0.00000000E+00  0.00000000E+00  0.00000000E+00
  0.00000000E+00  0.00000000E+00  0.00000000E+00
  0.00000000E+00  0.00000000E+00  0.00000000E+00
  0.00000000E+00  0.00000000E+00  0.00000000E+00
  0.00000000E+00  0.00000000E+00  0.00000000E+00
  0.00000000E+00  0.00000000E+00  0.00000000E+00
  0.00000000E+00  0.00000000E+00  0.00000000E+00
  0.00000000E+00  0.00000000E+00  0.00000000E+00
  0.00000000E+00  0.00000000E+00  0.00000000E+00
  0.00000000E+00  0.00000000E+00  0.00000000E+00
  0.00000000E+00  0.00000000E+00  0.00000000E+00
  0.00000000E+00  0.00000000E+00  0.00000000E+00
  0.00000000E+00  0.00000000E+00  0.00000000E+00
  0.00000000E+00  0.00000000E+00  0.00000000E+00
  0.00000000E+00  0.00000000E+00  0.00000000E+00
  0.00000000E+00  0.00000000E+00  0.00000000E+00
  0.00000000E+00  0.00000000E+00  0.00000000E+00
  0.00000000E+00  0.00000000E+00  0.00000000E+00
  0.00000000E+00  0.00000000E+00  0.00000000E+00
  0.00000000E+00  0.00000000E+00  0.00000000E+00
  0.00000000E+00  0.00000000E+00  0.00000000E+00
  0.00000000E+00  0.00000000E+00  0.00000000E+00
  0.00000000E+00  0.00000000E+00  0.00000000E+00
  0.00000000E+00  0.00000000E+00  0.00000000E+00
  0.00000000E+00  0.00000000E+00  0.00000000E+00
  0.00000000E+00  0.00000000E+00  0.00000000E+00
  0.00000000E+00  0.00000000E+00  0.00000000E+00
  0.00000000E+00  0.00000000E+00  0.00000000E+00
  0.00000000E+00  0.00000000E+00  0.00000000E+00
  0.00000000E+00  0.00000000E+00  0.00000000E+00
  0.00000000E+00  0.00000000E+00  0.00000000E+00
  0.00000000E+00  0.00000000E+00  0.00000000E+00
  0.00000000E+00  0.00000000E+00  0.00000000E+00
  0.00000000E+00  0.00000000E+00  0.00000000E+00
  0.00000000E+00  0.00000000E+00  0.00000000E+00
  0.00000000E+00  0.00000000E+00  0.00000000E+00
  0.00000000E+00  0.00000000E+00  0.00000000E+00
  0.00000000E+00  0.00000000E+00  0.00000000E+00
  0.00000000E+00  0.00000000E+00  0.00000000E+00
  0.00000000E+00  0.00000000E+00  0.00000000E+00
  0.00000000E+00  0.00000000E+00  0.00000000E+00
  0.00000000E+00  0.00000000E+00  0.00000000E+00
  0.00000000E+00  0.00000000E+00  0.00000000E+00
  0.00000000E+00  0.00000000E+00  0.00000000E+00
  0.00000000E+00  0.00000000E+00  0.00000000E+00
  0.00000000E+00  0.00000000E+00  0.00000000E+00
  0.00000000E+00  0.00000000E+00  0.00000000E+00
  0.00000000E+00  0.00000000E+00  0.00000000E+00
  0.00000000E+00  0.00000000E+00  0.00000000E+00
  0.00000000E+00  0.00000000E+00  0.00000000E+00
  0.00000000E+00  0.00000000E+00  0.00000000E+00
  0.00000000E+00  0.00000000E+00  0.00000000E+00
  0.00000000E+00  0.00000000E+00  0.00000000E+00
  0.00000000E+00  0.00000000E+00  0.00000000E+00
  0.00000000E+00  0.00000000E+00  0.00000000E+00
  0.00000000E+00  0.00000000E+00  0.00000000E+00
  0.00000000E+00  0.00000000E+00  0.00000000E+00
  0.00000000E+00  0.00000000E+00  0.00000000E+00
  0.00000000E+00  0.00000000E+00  0.00000000E+00
  0.00000000E+00  0.00000000E+00  0.00000000E+00
  0.00000000E+00  0.00000000E+00  0.00000000E+00
  0.00000000E+00  0.00000000E+00  0.00000000E+00
  0.00000000E+00  0.00000000E+00  0.00000000E+00
  0.00000000E+00  0.00000000E+00  0.00000000E+00
  0.00000000E+00  0.00000000E+00  0.00000000E+00
  0.00000000E+00  0.00000000E+00  0.00000000E+00
  0.00000000E+00  0.00000000E+00  0.00000000E+00
  0.00000000E+00  0.00000000E+00  0.00000000E+00
  0.00000000E+00  0.00000000E+00  0.00000000E+00
  0.00000000E+00  0.00000000E+00  0.00000000E+00
  0.00000000E+00  0.00000000E+00  0.00000000E+00
  0.00000000E+00  0.00000000E+00  0.00000000E+00
  0.00000000E+00  0.00000000E+00  0.00000000E+00
  0.00000000E+00  0.00000000E+00  0.00000000E+00
  0.00000000E+00  0.00000000E+00  0.00000000E+00
  0.00000000E+00  0.00000000E+00  0.00000000E+00
  0.00000000E+00  0.00000000E+00  0.00000000E+00
  0.00000000E+00  0.00000000E+00  0.00000000E+00
  0.00000000E+00  0.00000000E+00  0.00000000E+00
  0.00000000E+00  0.00000000E+00  0.00000000E+00
  0.00000000E+00  0.00000000E+00  0.00000000E+00
  0.00000000E+00  0.00000000E+00  0.00000000E+00
  0.00000000E+00  0.00000000E+00  0.00000000E+00
  0.00000000E+00  0.00000000E+00  0.00000000E+00
  0.00000000E+00  0.00000000E+00  0.00000000E+00
  0.00000000E+00  0.00000000E+00  0.00000000E+00
  0.00000000E+00  0.00000000E+00  0.00000000E+00
  0.00000000E+00  0.00000000E+00  0.00000000E+00
  0.00000000E+00  0.00000000E+00  0.00000000E+00
  0.00000000E+00  0.00000000E+00  0.00000000E+00
  0.00000000E+00  0.00000000E+00  0.00000000E+00
  0.00000000E+00  0.00000000E+00  0.00000000E+00
  0.00000000E+00  0.00000000E+00  0.00000000E+00
  0.00000000E+00  0.00000000E+00  0.00000000E+00
  0.00000000E+00  0.00000000E+00  0.00000000E+00
  0.00000000E+00  0.00000000E+00  0.00000000E+00
  0.00000000E+00  0.00000000E+00  0.00000000E+00
  0.00000000E+00  0.00000000E+00  0.00000000E+00
  0.00000000E+00  0.00000000E+00  0.00000000E+00
  0.00000000E+00  0.00000000E+00  0.00000000E+00
  0.00000000E+00  0.00000000E+00  0.00000000E+00
  0.00000000E+00  0.00000000E+00  0.00000000E+00
  0.00000000E+00  0.00000000E+00  0.00000000E+00
  0.00000000E+00  0.00000000E+00  0.00000000E+00
  0.00000000E+00  0.00000000E+00  0.00000000E+00
  0.00000000E+00  0.00000000E+00  0.00000000E+00
  0.00000000E+00  0.00000000E+00  0.00000000E+00
  0.00000000E+00  0.00000000E+00  0.00000000E+00
  0.00000000E+00  0.00000000E+00  0.00000000E+00
  0.00000000E+00  0.00000000E+00  0.00000000E+00
  0.00000000E+00  0.00000000E+00  0.00000000E+00
  0.00000000E+00  0.00000000E+00  0.00000000E+00
  0.00000000E+00  0.00000000E+00  0.00000000E+00
  0.00000000E+00  0.00000000E+00  0.00000000E+00
  0.00000000E+00  0.00000000E+00  0.00000000E+00
  0.00000000E+00  0.00000000E+00  0.00000000E+00
  0.00000000E+00  0.00000000E+00  0.00000000E+00
  0.00000000E+00  0.00000000E+00  0.00000000E+00
  0.00000000E+00  0.00000000E+00  0.00000000E+00
  0.00000000E+00  0.00000000E+00  0.00000000E+00
  0.00000000E+00  0.00000000E+00  0.00000000E+00
  0.00000000E+00  0.00000000E+00  0.00000000E+00
  0.00000000E+00  0.00000000E+00  0.00000000E+00
  0.00000000E+00  0.00000000E+00  0.00000000E+00
  0.00000000E+00  0.00000000E+00  0.00000000E+00
  0.00000000E+00  0.00000000E+00  0.00000000E+00
  0.00000000E+00  0.00000000E+00  0.00000000E+00
  0.00000000E+00  0.00000000E+00  0.00000000E+00
  0.00000000E+00  0.00000000E+00  0.00000000E+00
  0.00000000E+00  0.00000000E+00  0.00000000E+00
  0.00000000E+00  0.00000000E+00  0.00000000E+00
  0.00000000E+00  0.00000000E+00  0.00000000E+00
  0.00000000E+00  0.00000000E+00  0.00000000E+00
  0.00000000E+00  0.00000000E+00  0.00000000E+00
  0.00000000E+00  0.00000000E+00  0.00000000E+00
  0.00000000E+00  0.00000000E+00  0.00000000E+00
  0.00000000E+00  0.00000000E+00  0.00000000E+00
  0.00000000E+00  0.00000000E+00  0.00000000E+00
  0.00000000E+00  0.00000000E+00  0.00000000E+00
  0.00000000E+00  0.00000000E+00  0.00000000E+00
  0.00000000E+00  0.00000000E+00  0.00000000E+00
  0.00000000E+00  0.00000000E+00  0.00000000E+00
  0.00000000E+00  0.00000000E+00  0.00000000E+00
  0.00000000E+00  0.00000000E+00  0.00000000E+00
  0.00000000E+00  0.00000000E+00  0.00000000E+00
  0.00000000E+00  0.00000000E+00  0.00000000E+00
  0.00000000E+00  0.00000000E+00  0.00000000E+00
  0.00000000E+00  0.00000000E+00  0.00000000E+00
  0.00000000E+00  0.00000000E+00  0.00000000E+00
  0.00000000E+00  0.00000000E+00  0.00000000E+00
  0.00000000E+00  0.00000000E+00  0.00000000E+00
  0.00000000E+00  0.00000000E+00  0.00000000E+00
  0.00000000E+00  0.00000000E+00  0.00000000E+00
  0.00000000E+00  0.00000000E+00  0.00000000E+00
  0.00000000E+00  0.00000000E+00  0.00000000E+00
  0.00000000E+00  0.00000000E+00  0.00000000E+00
  0.00000000E+00  0.00000000E+00  0.00000000E+00
  0.00000000E+00  0.00000000E+00  0.00000000E+00
  0.00000000E+00  0.00000000E+00  0.00000000E+00
  0.00000000E+00  0.00000000E+00  0.00000000E+00
  0.00000000E+00  0.00000000E+00  0.00000000E+00
  0.00000000E+00  0.00000000E+00  0.00000000E+00
  0.00000000E+00  0.00000000E+00  0.00000000E+00
  0.00000000E+00  0.00000000E+00  0.00000000E+00
  0.00000000E+00  0.00000000E+00  0.00000000E+00
  0.00000000E+00  0.00000000E+00  0.00000000E+00
  0.00000000E+00  0.00000000E+00  0.00000000E+00
  0.00000000E+00  0.00000000E+00  0.00000000E+00
  0.00000000E+00  0.00000000E+00  0.00000000E+00
  0.00000000E+00  0.00000000E+00  0.00000000E+00
  0.00000000E+00  0.00000000E+00  0.00000000E+00
  0.00000000E+00  0.00000000E+00  0.00000000E+00
  0.00000000E+00  0.00000000E+00  0.00000000E+00
  0.00000000E+00  0.00000000E+00  0.00000000E+00
