Ga54 Ag54 Se108                         
   1.0000000000000000     
    16.3901199999999996    0.0000000000000000   -7.7411770000000004
    -3.6562160000000001   15.9771120000000000   -7.7411770000000004
     0.0000000000000000    0.0000000000000000   21.2217109999999991
   Ga   Ag   Se
    54    54   108
Direct
  0.1666669999999968  0.5000000000000000  0.0000000000000000
  0.5000000000000000  0.5000000000000000  0.0000000000000000
  0.8333330000000032  0.5000000000000000  0.0000000000000000
  0.1666669999999968  0.8333330000000032  0.0000000000000000
  0.5000000000000000  0.8333330000000032  0.0000000000000000
  0.8333330000000032  0.8333330000000032  0.0000000000000000
  0.1666669999999968  0.1666669999999968  0.0000000000000000
  0.5000000000000000  0.1666669999999968  0.0000000000000000
  0.8333330000000032  0.1666669999999968  0.0000000000000000
  0.1666669999999968  0.5000000000000000  0.3333330000000032
  0.5000000000000000  0.5000000000000000  0.3333330000000032
  0.8333330000000032  0.5000000000000000  0.3333330000000032
  0.1666669999999968  0.8333330000000032  0.3333330000000032
  0.5000000000000000  0.8333330000000032  0.3333330000000032
  0.8333330000000032  0.8333330000000032  0.3333330000000032
  0.1666669999999968  0.1666669999999968  0.3333330000000032
  0.5000000000000000  0.1666669999999968  0.3333330000000032
  0.8333330000000032  0.1666669999999968  0.3333330000000032
  0.1666669999999968  0.5000000000000000  0.6666669999999968
  0.5000000000000000  0.5000000000000000  0.6666669999999968
  0.8333330000000032  0.5000000000000000  0.6666669999999968
  0.1666669999999968  0.8333330000000032  0.6666669999999968
  0.5000000000000000  0.8333330000000032  0.6666669999999968
  0.8333330000000032  0.8333330000000032  0.6666669999999968
  0.1666669999999968  0.1666669999999968  0.6666669999999968
  0.5000000000000000  0.1666669999999968  0.6666669999999968
  0.8333330000000032  0.1666669999999968  0.6666669999999968
  0.2500000000000000  0.4166669999999968  0.1666669999999968
  0.5833330000000032  0.4166669999999968  0.1666669999999968
  0.9166669999999968  0.4166669999999968  0.1666669999999968
  0.2500000000000000  0.7500000000000000  0.1666669999999968
  0.5833330000000032  0.7500000000000000  0.1666669999999968
  0.9166669999999968  0.7500000000000000  0.1666669999999968
  0.2500000000000000  0.0833330000000032  0.1666669999999968
  0.5833330000000032  0.0833330000000032  0.1666669999999968
  0.9166669999999968  0.0833330000000032  0.1666669999999968
  0.2500000000000000  0.4166669999999968  0.5000000000000000
  0.5833330000000032  0.4166669999999968  0.5000000000000000
  0.9166669999999968  0.4166669999999968  0.5000000000000000
  0.2500000000000000  0.7500000000000000  0.5000000000000000
  0.5833330000000032  0.7500000000000000  0.5000000000000000
  0.9166669999999968  0.7500000000000000  0.5000000000000000
  0.2500000000000000  0.0833330000000032  0.5000000000000000
  0.5833330000000032  0.0833330000000032  0.5000000000000000
  0.9166669999999968  0.0833330000000032  0.5000000000000000
  0.2500000000000000  0.4166669999999968  0.8333330000000032
  0.5833330000000032  0.4166669999999968  0.8333330000000032
  0.9166669999999968  0.4166669999999968  0.8333330000000032
  0.2500000000000000  0.7500000000000000  0.8333330000000032
  0.5833330000000032  0.7500000000000000  0.8333330000000032
  0.9166669999999968  0.7500000000000000  0.8333330000000032
  0.2500000000000000  0.0833330000000032  0.8333330000000032
  0.5833330000000032  0.0833330000000032  0.8333330000000032
  0.9166669999999968  0.0833330000000032  0.8333330000000032
  0.0000000000000000  0.3333330000000032  0.0000000000000000
  0.3333330000000032  0.3333330000000032  0.0000000000000000
  0.6666669999999968  0.3333330000000032  0.0000000000000000
  0.0000000000000000  0.6666669999999968  0.0000000000000000
  0.3333330000000032  0.6666669999999968  0.0000000000000000
  0.6666669999999968  0.6666669999999968  0.0000000000000000
  0.0000000000000000  0.0000000000000000  0.0000000000000000
  0.3333330000000032  0.0000000000000000  0.0000000000000000
  0.6666669999999968  0.0000000000000000  0.0000000000000000
  0.0000000000000000  0.3333330000000032  0.3333330000000032
  0.3333330000000032  0.3333330000000032  0.3333330000000032
  0.6666669999999968  0.3333330000000032  0.3333330000000032
  0.0000000000000000  0.6666669999999968  0.3333330000000032
  0.3333330000000032  0.6666669999999968  0.3333330000000032
  0.6666669999999968  0.6666669999999968  0.3333330000000032
  0.0000000000000000  0.0000000000000000  0.3333330000000032
  0.3333330000000032  0.0000000000000000  0.3333330000000032
  0.6666669999999968  0.0000000000000000  0.3333330000000032
  0.0000000000000000  0.3333330000000032  0.6666669999999968
  0.3333330000000032  0.3333330000000032  0.6666669999999968
  0.6666669999999968  0.3333330000000032  0.6666669999999968
  0.0000000000000000  0.6666669999999968  0.6666669999999968
  0.3333330000000032  0.6666669999999968  0.6666669999999968
  0.6666669999999968  0.6666669999999968  0.6666669999999968
  0.0000000000000000  0.0000000000000000  0.6666669999999968
  0.3333330000000032  0.0000000000000000  0.6666669999999968
  0.6666669999999968  0.0000000000000000  0.6666669999999968
  0.0833330000000032  0.5833330000000032  0.1666669999999968
  0.4166669999999968  0.5833330000000032  0.1666669999999968
  0.7500000000000000  0.5833330000000032  0.1666669999999968
  0.0833330000000032  0.9166669999999968  0.1666669999999968
  0.4166669999999968  0.9166669999999968  0.1666669999999968
  0.7500000000000000  0.9166669999999968  0.1666669999999968
  0.0833330000000032  0.2500000000000000  0.1666669999999968
  0.4166669999999968  0.2500000000000000  0.1666669999999968
  0.7500000000000000  0.2500000000000000  0.1666669999999968
  0.0833330000000032  0.5833330000000032  0.5000000000000000
  0.4166669999999968  0.5833330000000032  0.5000000000000000
  0.7500000000000000  0.5833330000000032  0.5000000000000000
  0.0833330000000032  0.9166669999999968  0.5000000000000000
  0.4166669999999968  0.9166669999999968  0.5000000000000000
  0.7500000000000000  0.9166669999999968  0.5000000000000000
  0.0833330000000032  0.2500000000000000  0.5000000000000000
  0.4166669999999968  0.2500000000000000  0.5000000000000000
  0.7500000000000000  0.2500000000000000  0.5000000000000000
  0.0833330000000032  0.5833330000000032  0.8333330000000032
  0.4166669999999968  0.5833330000000032  0.8333330000000032
  0.7500000000000000  0.5833330000000032  0.8333330000000032
  0.0833330000000032  0.9166669999999968  0.8333330000000032
  0.4166669999999968  0.9166669999999968  0.8333330000000032
  0.7500000000000000  0.9166669999999968  0.8333330000000032
  0.0833330000000032  0.2500000000000000  0.8333330000000032
  0.4166669999999968  0.2500000000000000  0.8333330000000032
  0.7500000000000000  0.2500000000000000  0.8333330000000032
  0.1342169999999996  0.4583330000000032  0.0833330000000032
  0.4675500000000028  0.4583330000000032  0.0833330000000032
  0.8008829999999989  0.4583330000000032  0.0833330000000032
  0.1342169999999996  0.7916669999999968  0.0833330000000032
  0.4675500000000028  0.7916669999999968  0.0833330000000032
  0.8008829999999989  0.7916669999999968  0.0833330000000032
  0.1342169999999996  0.1250000000000000  0.0833330000000032
  0.4675500000000028  0.1250000000000000  0.0833330000000032
  0.8008829999999989  0.1250000000000000  0.0833330000000032
  0.1342169999999996  0.4583330000000032  0.4166669999999968
  0.4675500000000028  0.4583330000000032  0.4166669999999968
  0.8008829999999989  0.4583330000000032  0.4166669999999968
  0.1342169999999996  0.7916669999999968  0.4166669999999968
  0.4675500000000028  0.7916669999999968  0.4166669999999968
  0.8008829999999989  0.7916669999999968  0.4166669999999968
  0.1342169999999996  0.1250000000000000  0.4166669999999968
  0.4675500000000028  0.1250000000000000  0.4166669999999968
  0.8008829999999989  0.1250000000000000  0.4166669999999968
  0.1342169999999996  0.4583330000000032  0.7500000000000000
  0.4675500000000028  0.4583330000000032  0.7500000000000000
  0.8008829999999989  0.4583330000000032  0.7500000000000000
  0.1342169999999996  0.7916669999999968  0.7500000000000000
  0.4675500000000028  0.7916669999999968  0.7500000000000000
  0.8008829999999989  0.7916669999999968  0.7500000000000000
  0.1342169999999996  0.1250000000000000  0.7500000000000000
  0.4675500000000028  0.1250000000000000  0.7500000000000000
  0.8008829999999989  0.1250000000000000  0.7500000000000000
  0.2824499999999972  0.6250000000000000  0.0833330000000032
  0.6157830000000004  0.6250000000000000  0.0833330000000032
  0.9491170000000011  0.6250000000000000  0.0833330000000032
  0.2824499999999972  0.9583330000000032  0.0833330000000032
  0.6157830000000004  0.9583330000000032  0.0833330000000032
  0.9491170000000011  0.9583330000000032  0.0833330000000032
  0.2824499999999972  0.2916669999999968  0.0833330000000032
  0.6157830000000004  0.2916669999999968  0.0833330000000032
  0.9491170000000011  0.2916669999999968  0.0833330000000032
  0.2824499999999972  0.6250000000000000  0.4166669999999968
  0.6157830000000004  0.6250000000000000  0.4166669999999968
  0.9491170000000011  0.6250000000000000  0.4166669999999968
  0.2824499999999972  0.9583330000000032  0.4166669999999968
  0.6157830000000004  0.9583330000000032  0.4166669999999968
  0.9491170000000011  0.9583330000000032  0.4166669999999968
  0.2824499999999972  0.2916669999999968  0.4166669999999968
  0.6157830000000004  0.2916669999999968  0.4166669999999968
  0.9491170000000011  0.2916669999999968  0.4166669999999968
  0.2824499999999972  0.6250000000000000  0.7500000000000000
  0.6157830000000004  0.6250000000000000  0.7500000000000000
  0.9491170000000011  0.6250000000000000  0.7500000000000000
  0.2824499999999972  0.9583330000000032  0.7500000000000000
  0.6157830000000004  0.9583330000000032  0.7500000000000000
  0.9491170000000011  0.9583330000000032  0.7500000000000000
  0.2824499999999972  0.2916669999999968  0.7500000000000000
  0.6157830000000004  0.2916669999999968  0.7500000000000000
  0.9491170000000011  0.2916669999999968  0.7500000000000000
  0.2083330000000032  0.3842169999999996  0.2500000000000000
  0.5416669999999968  0.3842169999999996  0.2500000000000000
  0.8750000000000000  0.3842169999999996  0.2500000000000000
  0.2083330000000032  0.7175500000000028  0.2500000000000000
  0.5416669999999968  0.7175500000000028  0.2500000000000000
  0.8750000000000000  0.7175500000000028  0.2500000000000000
  0.2083330000000032  0.0508829999999989  0.2500000000000000
  0.5416669999999968  0.0508829999999989  0.2500000000000000
  0.8750000000000000  0.0508829999999989  0.2500000000000000
  0.2083330000000032  0.3842169999999996  0.5833330000000032
  0.5416669999999968  0.3842169999999996  0.5833330000000032
  0.8750000000000000  0.3842169999999996  0.5833330000000032
  0.2083330000000032  0.7175500000000028  0.5833330000000032
  0.5416669999999968  0.7175500000000028  0.5833330000000032
  0.8750000000000000  0.7175500000000028  0.5833330000000032
  0.2083330000000032  0.0508829999999989  0.5833330000000032
  0.5416669999999968  0.0508829999999989  0.5833330000000032
  0.8750000000000000  0.0508829999999989  0.5833330000000032
  0.2083330000000032  0.3842169999999996  0.9166669999999968
  0.5416669999999968  0.3842169999999996  0.9166669999999968
  0.8750000000000000  0.3842169999999996  0.9166669999999968
  0.2083330000000032  0.7175500000000028  0.9166669999999968
  0.5416669999999968  0.7175500000000028  0.9166669999999968
  0.8750000000000000  0.7175500000000028  0.9166669999999968
  0.2083330000000032  0.0508829999999989  0.9166669999999968
  0.5416669999999968  0.0508829999999989  0.9166669999999968
  0.8750000000000000  0.0508829999999989  0.9166669999999968
  0.0416669999999968  0.5324499999999972  0.2500000000000000
  0.3750000000000000  0.5324499999999972  0.2500000000000000
  0.7083330000000032  0.5324499999999972  0.2500000000000000
  0.0416669999999968  0.8657830000000004  0.2500000000000000
  0.3750000000000000  0.8657830000000004  0.2500000000000000
  0.7083330000000032  0.8657830000000004  0.2500000000000000
  0.0416669999999968  0.1991170000000011  0.2500000000000000
  0.3750000000000000  0.1991170000000011  0.2500000000000000
  0.7083330000000032  0.1991170000000011  0.2500000000000000
  0.0416669999999968  0.5324499999999972  0.5833330000000032
  0.3750000000000000  0.5324499999999972  0.5833330000000032
  0.7083330000000032  0.5324499999999972  0.5833330000000032
  0.0416669999999968  0.8657830000000004  0.5833330000000032
  0.3750000000000000  0.8657830000000004  0.5833330000000032
  0.7083330000000032  0.8657830000000004  0.5833330000000032
  0.0416669999999968  0.1991170000000011  0.5833330000000032
  0.3750000000000000  0.1991170000000011  0.5833330000000032
  0.7083330000000032  0.1991170000000011  0.5833330000000032
  0.0416669999999968  0.5324499999999972  0.9166669999999968
  0.3750000000000000  0.5324499999999972  0.9166669999999968
  0.7083330000000032  0.5324499999999972  0.9166669999999968
  0.0416669999999968  0.8657830000000004  0.9166669999999968
  0.3750000000000000  0.8657830000000004  0.9166669999999968
  0.7083330000000032  0.8657830000000004  0.9166669999999968
  0.0416669999999968  0.1991170000000011  0.9166669999999968
  0.3750000000000000  0.1991170000000011  0.9166669999999968
  0.7083330000000032  0.1991170000000011  0.9166669999999968

  0.00000000E+00  0.00000000E+00  0.00000000E+00
  0.00000000E+00  0.00000000E+00  0.00000000E+00
  0.00000000E+00  0.00000000E+00  0.00000000E+00
  0.00000000E+00  0.00000000E+00  0.00000000E+00
  0.00000000E+00  0.00000000E+00  0.00000000E+00
  0.00000000E+00  0.00000000E+00  0.00000000E+00
  0.00000000E+00  0.00000000E+00  0.00000000E+00
  0.00000000E+00  0.00000000E+00  0.00000000E+00
  0.00000000E+00  0.00000000E+00  0.00000000E+00
  0.00000000E+00  0.00000000E+00  0.00000000E+00
  0.00000000E+00  0.00000000E+00  0.00000000E+00
  0.00000000E+00  0.00000000E+00  0.00000000E+00
  0.00000000E+00  0.00000000E+00  0.00000000E+00
  0.00000000E+00  0.00000000E+00  0.00000000E+00
  0.00000000E+00  0.00000000E+00  0.00000000E+00
  0.00000000E+00  0.00000000E+00  0.00000000E+00
  0.00000000E+00  0.00000000E+00  0.00000000E+00
  0.00000000E+00  0.00000000E+00  0.00000000E+00
  0.00000000E+00  0.00000000E+00  0.00000000E+00
  0.00000000E+00  0.00000000E+00  0.00000000E+00
  0.00000000E+00  0.00000000E+00  0.00000000E+00
  0.00000000E+00  0.00000000E+00  0.00000000E+00
  0.00000000E+00  0.00000000E+00  0.00000000E+00
  0.00000000E+00  0.00000000E+00  0.00000000E+00
  0.00000000E+00  0.00000000E+00  0.00000000E+00
  0.00000000E+00  0.00000000E+00  0.00000000E+00
  0.00000000E+00  0.00000000E+00  0.00000000E+00
  0.00000000E+00  0.00000000E+00  0.00000000E+00
  0.00000000E+00  0.00000000E+00  0.00000000E+00
  0.00000000E+00  0.00000000E+00  0.00000000E+00
  0.00000000E+00  0.00000000E+00  0.00000000E+00
  0.00000000E+00  0.00000000E+00  0.00000000E+00
  0.00000000E+00  0.00000000E+00  0.00000000E+00
  0.00000000E+00  0.00000000E+00  0.00000000E+00
  0.00000000E+00  0.00000000E+00  0.00000000E+00
  0.00000000E+00  0.00000000E+00  0.00000000E+00
  0.00000000E+00  0.00000000E+00  0.00000000E+00
  0.00000000E+00  0.00000000E+00  0.00000000E+00
  0.00000000E+00  0.00000000E+00  0.00000000E+00
  0.00000000E+00  0.00000000E+00  0.00000000E+00
  0.00000000E+00  0.00000000E+00  0.00000000E+00
  0.00000000E+00  0.00000000E+00  0.00000000E+00
  0.00000000E+00  0.00000000E+00  0.00000000E+00
  0.00000000E+00  0.00000000E+00  0.00000000E+00
  0.00000000E+00  0.00000000E+00  0.00000000E+00
  0.00000000E+00  0.00000000E+00  0.00000000E+00
  0.00000000E+00  0.00000000E+00  0.00000000E+00
  0.00000000E+00  0.00000000E+00  0.00000000E+00
  0.00000000E+00  0.00000000E+00  0.00000000E+00
  0.00000000E+00  0.00000000E+00  0.00000000E+00
  0.00000000E+00  0.00000000E+00  0.00000000E+00
  0.00000000E+00  0.00000000E+00  0.00000000E+00
  0.00000000E+00  0.00000000E+00  0.00000000E+00
  0.00000000E+00  0.00000000E+00  0.00000000E+00
  0.00000000E+00  0.00000000E+00  0.00000000E+00
  0.00000000E+00  0.00000000E+00  0.00000000E+00
  0.00000000E+00  0.00000000E+00  0.00000000E+00
  0.00000000E+00  0.00000000E+00  0.00000000E+00
  0.00000000E+00  0.00000000E+00  0.00000000E+00
  0.00000000E+00  0.00000000E+00  0.00000000E+00
  0.00000000E+00  0.00000000E+00  0.00000000E+00
  0.00000000E+00  0.00000000E+00  0.00000000E+00
  0.00000000E+00  0.00000000E+00  0.00000000E+00
  0.00000000E+00  0.00000000E+00  0.00000000E+00
  0.00000000E+00  0.00000000E+00  0.00000000E+00
  0.00000000E+00  0.00000000E+00  0.00000000E+00
  0.00000000E+00  0.00000000E+00  0.00000000E+00
  0.00000000E+00  0.00000000E+00  0.00000000E+00
  0.00000000E+00  0.00000000E+00  0.00000000E+00
  0.00000000E+00  0.00000000E+00  0.00000000E+00
  0.00000000E+00  0.00000000E+00  0.00000000E+00
  0.00000000E+00  0.00000000E+00  0.00000000E+00
  0.00000000E+00  0.00000000E+00  0.00000000E+00
  0.00000000E+00  0.00000000E+00  0.00000000E+00
  0.00000000E+00  0.00000000E+00  0.00000000E+00
  0.00000000E+00  0.00000000E+00  0.00000000E+00
  0.00000000E+00  0.00000000E+00  0.00000000E+00
  0.00000000E+00  0.00000000E+00  0.00000000E+00
  0.00000000E+00  0.00000000E+00  0.00000000E+00
  0.00000000E+00  0.00000000E+00  0.00000000E+00
  0.00000000E+00  0.00000000E+00  0.00000000E+00
  0.00000000E+00  0.00000000E+00  0.00000000E+00
  0.00000000E+00  0.00000000E+00  0.00000000E+00
  0.00000000E+00  0.00000000E+00  0.00000000E+00
  0.00000000E+00  0.00000000E+00  0.00000000E+00
  0.00000000E+00  0.00000000E+00  0.00000000E+00
  0.00000000E+00  0.00000000E+00  0.00000000E+00
  0.00000000E+00  0.00000000E+00  0.00000000E+00
  0.00000000E+00  0.00000000E+00  0.00000000E+00
  0.00000000E+00  0.00000000E+00  0.00000000E+00
  0.00000000E+00  0.00000000E+00  0.00000000E+00
  0.00000000E+00  0.00000000E+00  0.00000000E+00
  0.00000000E+00  0.00000000E+00  0.00000000E+00
  0.00000000E+00  0.00000000E+00  0.00000000E+00
  0.00000000E+00  0.00000000E+00  0.00000000E+00
  0.00000000E+00  0.00000000E+00  0.00000000E+00
  0.00000000E+00  0.00000000E+00  0.00000000E+00
  0.00000000E+00  0.00000000E+00  0.00000000E+00
  0.00000000E+00  0.00000000E+00  0.00000000E+00
  0.00000000E+00  0.00000000E+00  0.00000000E+00
  0.00000000E+00  0.00000000E+00  0.00000000E+00
  0.00000000E+00  0.00000000E+00  0.00000000E+00
  0.00000000E+00  0.00000000E+00  0.00000000E+00
  0.00000000E+00  0.00000000E+00  0.00000000E+00
  0.00000000E+00  0.00000000E+00  0.00000000E+00
  0.00000000E+00  0.00000000E+00  0.00000000E+00
  0.00000000E+00  0.00000000E+00  0.00000000E+00
  0.00000000E+00  0.00000000E+00  0.00000000E+00
  0.00000000E+00  0.00000000E+00  0.00000000E+00
  0.00000000E+00  0.00000000E+00  0.00000000E+00
  0.00000000E+00  0.00000000E+00  0.00000000E+00
  0.00000000E+00  0.00000000E+00  0.00000000E+00
  0.00000000E+00  0.00000000E+00  0.00000000E+00
  0.00000000E+00  0.00000000E+00  0.00000000E+00
  0.00000000E+00  0.00000000E+00  0.00000000E+00
  0.00000000E+00  0.00000000E+00  0.00000000E+00
  0.00000000E+00  0.00000000E+00  0.00000000E+00
  0.00000000E+00  0.00000000E+00  0.00000000E+00
  0.00000000E+00  0.00000000E+00  0.00000000E+00
  0.00000000E+00  0.00000000E+00  0.00000000E+00
  0.00000000E+00  0.00000000E+00  0.00000000E+00
  0.00000000E+00  0.00000000E+00  0.00000000E+00
  0.00000000E+00  0.00000000E+00  0.00000000E+00
  0.00000000E+00  0.00000000E+00  0.00000000E+00
  0.00000000E+00  0.00000000E+00  0.00000000E+00
  0.00000000E+00  0.00000000E+00  0.00000000E+00
  0.00000000E+00  0.00000000E+00  0.00000000E+00
  0.00000000E+00  0.00000000E+00  0.00000000E+00
  0.00000000E+00  0.00000000E+00  0.00000000E+00
  0.00000000E+00  0.00000000E+00  0.00000000E+00
  0.00000000E+00  0.00000000E+00  0.00000000E+00
  0.00000000E+00  0.00000000E+00  0.00000000E+00
  0.00000000E+00  0.00000000E+00  0.00000000E+00
  0.00000000E+00  0.00000000E+00  0.00000000E+00
  0.00000000E+00  0.00000000E+00  0.00000000E+00
  0.00000000E+00  0.00000000E+00  0.00000000E+00
  0.00000000E+00  0.00000000E+00  0.00000000E+00
  0.00000000E+00  0.00000000E+00  0.00000000E+00
  0.00000000E+00  0.00000000E+00  0.00000000E+00
  0.00000000E+00  0.00000000E+00  0.00000000E+00
  0.00000000E+00  0.00000000E+00  0.00000000E+00
  0.00000000E+00  0.00000000E+00  0.00000000E+00
  0.00000000E+00  0.00000000E+00  0.00000000E+00
  0.00000000E+00  0.00000000E+00  0.00000000E+00
  0.00000000E+00  0.00000000E+00  0.00000000E+00
  0.00000000E+00  0.00000000E+00  0.00000000E+00
  0.00000000E+00  0.00000000E+00  0.00000000E+00
  0.00000000E+00  0.00000000E+00  0.00000000E+00
  0.00000000E+00  0.00000000E+00  0.00000000E+00
  0.00000000E+00  0.00000000E+00  0.00000000E+00
  0.00000000E+00  0.00000000E+00  0.00000000E+00
  0.00000000E+00  0.00000000E+00  0.00000000E+00
  0.00000000E+00  0.00000000E+00  0.00000000E+00
  0.00000000E+00  0.00000000E+00  0.00000000E+00
  0.00000000E+00  0.00000000E+00  0.00000000E+00
  0.00000000E+00  0.00000000E+00  0.00000000E+00
  0.00000000E+00  0.00000000E+00  0.00000000E+00
  0.00000000E+00  0.00000000E+00  0.00000000E+00
  0.00000000E+00  0.00000000E+00  0.00000000E+00
  0.00000000E+00  0.00000000E+00  0.00000000E+00
  0.00000000E+00  0.00000000E+00  0.00000000E+00
  0.00000000E+00  0.00000000E+00  0.00000000E+00
  0.00000000E+00  0.00000000E+00  0.00000000E+00
  0.00000000E+00  0.00000000E+00  0.00000000E+00
  0.00000000E+00  0.00000000E+00  0.00000000E+00
  0.00000000E+00  0.00000000E+00  0.00000000E+00
  0.00000000E+00  0.00000000E+00  0.00000000E+00
  0.00000000E+00  0.00000000E+00  0.00000000E+00
  0.00000000E+00  0.00000000E+00  0.00000000E+00
  0.00000000E+00  0.00000000E+00  0.00000000E+00
  0.00000000E+00  0.00000000E+00  0.00000000E+00
  0.00000000E+00  0.00000000E+00  0.00000000E+00
  0.00000000E+00  0.00000000E+00  0.00000000E+00
  0.00000000E+00  0.00000000E+00  0.00000000E+00
  0.00000000E+00  0.00000000E+00  0.00000000E+00
  0.00000000E+00  0.00000000E+00  0.00000000E+00
  0.00000000E+00  0.00000000E+00  0.00000000E+00
  0.00000000E+00  0.00000000E+00  0.00000000E+00
  0.00000000E+00  0.00000000E+00  0.00000000E+00
  0.00000000E+00  0.00000000E+00  0.00000000E+00
  0.00000000E+00  0.00000000E+00  0.00000000E+00
  0.00000000E+00  0.00000000E+00  0.00000000E+00
  0.00000000E+00  0.00000000E+00  0.00000000E+00
  0.00000000E+00  0.00000000E+00  0.00000000E+00
  0.00000000E+00  0.00000000E+00  0.00000000E+00
  0.00000000E+00  0.00000000E+00  0.00000000E+00
  0.00000000E+00  0.00000000E+00  0.00000000E+00
  0.00000000E+00  0.00000000E+00  0.00000000E+00
  0.00000000E+00  0.00000000E+00  0.00000000E+00
  0.00000000E+00  0.00000000E+00  0.00000000E+00
  0.00000000E+00  0.00000000E+00  0.00000000E+00
  0.00000000E+00  0.00000000E+00  0.00000000E+00
  0.00000000E+00  0.00000000E+00  0.00000000E+00
  0.00000000E+00  0.00000000E+00  0.00000000E+00
  0.00000000E+00  0.00000000E+00  0.00000000E+00
  0.00000000E+00  0.00000000E+00  0.00000000E+00
  0.00000000E+00  0.00000000E+00  0.00000000E+00
  0.00000000E+00  0.00000000E+00  0.00000000E+00
  0.00000000E+00  0.00000000E+00  0.00000000E+00
  0.00000000E+00  0.00000000E+00  0.00000000E+00
  0.00000000E+00  0.00000000E+00  0.00000000E+00
  0.00000000E+00  0.00000000E+00  0.00000000E+00
  0.00000000E+00  0.00000000E+00  0.00000000E+00
  0.00000000E+00  0.00000000E+00  0.00000000E+00
  0.00000000E+00  0.00000000E+00  0.00000000E+00
  0.00000000E+00  0.00000000E+00  0.00000000E+00
  0.00000000E+00  0.00000000E+00  0.00000000E+00
  0.00000000E+00  0.00000000E+00  0.00000000E+00
  0.00000000E+00  0.00000000E+00  0.00000000E+00
  0.00000000E+00  0.00000000E+00  0.00000000E+00
  0.00000000E+00  0.00000000E+00  0.00000000E+00
  0.00000000E+00  0.00000000E+00  0.00000000E+00
  0.00000000E+00  0.00000000E+00  0.00000000E+00
  0.00000000E+00  0.00000000E+00  0.00000000E+00
  0.00000000E+00  0.00000000E+00  0.00000000E+00
  0.00000000E+00  0.00000000E+00  0.00000000E+00
