In18 Ga36 Cu12 Ag42 Se108               
   1.0000000000000000     
    16.3503831896580181    0.0012342016318173   -7.5330341254273883
    -3.4730339944819044   15.9774809002727718   -7.5163893188753432
     0.0070756709540714    0.0083313821656066   21.5215863552634268
   In   Ga   Cu   Ag   Se
    18    36    12    42   108
Direct
  0.1648721434870737  0.4960011354348737  0.9966795111781011
  0.8274952305763392  0.8330054359714794  0.9973343967489683
  0.1735690903582991  0.1667445140314925  0.9964544730919656
  0.4973149891555835  0.1666943170787434  0.9985219811209660
  0.1697992611922174  0.4995018845630810  0.3370144792386469
  0.8352262572741367  0.4967232618273556  0.3370962041488639
  0.1648231281384795  0.1665492693594786  0.3347902728041845
  0.1712393705568971  0.8385805559261073  0.6690629689044698
  0.8352975093922126  0.1688251737098696  0.6670787639571145
  0.2599226753640451  0.4138501796656868  0.1694754083777354
  0.5803161709408755  0.4130790530003594  0.1679236078234609
  0.9112437579180792  0.4113296035463492  0.1606968464832264
  0.5821274339308715  0.7516705476374739  0.1652813213222259
  0.9161285814666513  0.7551551547140676  0.1700667116031553
  0.9164134790495382  0.7571028791903700  0.5009133660889233
  0.5822602102468792  0.4144860823467909  0.8316892622343275
  0.5790486173070306  0.7459298251508741  0.8286890081421845
  0.9143627349721228  0.7452330668887086  0.8295570368910319
  0.4923318896129274  0.4915801117147609  0.9957581839660534
  0.8341155102463205  0.5034881996092722  0.9969704084109736
  0.1705570631284061  0.8344792579181828  0.9999737523996899
  0.4959561810209010  0.8346840264284481  0.9985941461161261
  0.8313403759523013  0.1605341909289066  0.9961468427325499
  0.5036523274681244  0.5001342574294441  0.3413508380661128
  0.1676452817598886  0.8413391379836597  0.3374426341735557
  0.5030314297823466  0.8392373440782777  0.3360893076454232
  0.8313337553138922  0.8429905777026434  0.3346157482595800
  0.5027401203630788  0.1663901279122513  0.3329760029383806
  0.8358038598718522  0.1627792373726251  0.3350470902783300
  0.1694247656014412  0.4946892227357722  0.6662523345413618
  0.5000125637975827  0.4973563021643770  0.6656958832979711
  0.8285198894513641  0.4916013700103008  0.6647561274555969
  0.4933572065169471  0.8316916970970354  0.6619926517598742
  0.8335706956737639  0.8375969459413142  0.6654295488609279
  0.1633447984446335  0.1657303658998615  0.6653945119352116
  0.5003351566029721  0.1672804439765798  0.6635505077025385
  0.2524935692410537  0.7533351138325344  0.1680334665924192
  0.2547350636359411  0.0832439430107854  0.1657291795536722
  0.5850004756271048  0.0862327003429399  0.1701034730369315
  0.9147717332203626  0.0845169986967917  0.1678333037606521
  0.2507052824842688  0.4151952164704298  0.5049354526690308
  0.5838693233775487  0.4135686027588648  0.5024318180645437
  0.9189073230783578  0.4099597043032759  0.5055909518139927
  0.2525441115255518  0.7509387749580370  0.5005380867357516
  0.5852331037486920  0.7515021568314353  0.5009708020787116
  0.2453297460703254  0.0863990404521786  0.5031551608104152
  0.5817993636601386  0.0887888299304649  0.4986673079305461
  0.9205804870225194  0.0837283009210381  0.4979128281348508
  0.2522303903252165  0.4064299561116513  0.8317999576243551
  0.9140189905569756  0.4175463917938131  0.8320519640700894
  0.2496807453287886  0.7470639286091796  0.8311655189761993
  0.2480325902197720  0.0897739758060965  0.8290921348902742
  0.5793325016804758  0.0835694506143625  0.8299048311488662
  0.9184747533367883  0.0847805945886577  0.8311393323525422
  0.3306666473982389  0.3290147488994677  0.9929682782785676
  0.0023904182894725  0.0062282559416360  0.3377975145681873
  0.6691279176805764  0.0039770838456405  0.3374772456960073
  0.6659178903517429  0.3350315544318718  0.6652830388721611
  0.3276353869126254  0.6601502237200947  0.6609996391298125
  0.0018888684236842  0.0077332995753920  0.6705263806301005
  0.4195739613011895  0.2519669638163009  0.1707750410481594
  0.7520013830186087  0.2414232982951390  0.1666164406628070
  0.0832666671513138  0.2475930231575347  0.5016802819076887
  0.7479381304334964  0.5717013892667566  0.8253070841837982
  0.0871524015024434  0.2488656629703812  0.8302608738609791
  0.4121631670943344  0.2481052245607458  0.8309853417212807
  0.9964094299806021  0.3273875725805127  0.9894027570312787
  0.6617692481226669  0.3281180562698225  0.9965525613350934
  0.9990711848435794  0.6711610407095918  0.9998279393793936
  0.3306770186257566  0.6620511102219524  0.9973347398253125
  0.6634962164951332  0.6591321507091408  0.9977329927329563
  0.0037385903610456  0.0034702503286042  0.0050110432244921
  0.3397645290305533  0.0010991810392653  0.0004431643523546
  0.6657358612343316  0.0047045647948210  0.0022809594117987
  0.9961789176138822  0.3314901955604270  0.3407842541051451
  0.3432688155903207  0.3272033592300119  0.3358725669864100
  0.6698816664396148  0.3255782727428524  0.3312305732151586
  0.9991761868421563  0.6747517938025780  0.3365325098789071
  0.3346923616701005  0.6797609037567867  0.3363288667596080
  0.6643586479221639  0.6713797439623121  0.3398154173629919
  0.3347227344279062  0.9989987846273962  0.3347111153300233
  0.0041831336318765  0.3319087341636831  0.6705165950872356
  0.3298893328310086  0.3312501199159712  0.6661299866479240
  0.0021970238939346  0.6635439675277937  0.6659041437204536
  0.6643007291680192  0.6651960328074153  0.6655643413276309
  0.3425050051088192  0.0111716717508159  0.6688747336827632
  0.6639852184502928  0.9962675158348731  0.6625605337079463
  0.0887957276001572  0.5859205131465615  0.1710179847457525
  0.4197557672304484  0.5793024711243433  0.1693665619356466
  0.7494592106533915  0.5806481941432367  0.1658552599120213
  0.0869247103441921  0.9146772293170571  0.1685435902682570
  0.4230759906642589  0.9264325959718676  0.1728076270863994
  0.7483561529461085  0.9298096928328974  0.1715866978767764
  0.0779241457854098  0.2470813643311942  0.1628060787982335
  0.0891072717442540  0.5827950969987299  0.5099759962171788
  0.4184585420456060  0.5845328332805408  0.5079651380811470
  0.7539873680599598  0.5836361116291968  0.5069157306257139
  0.0804796511528352  0.9171015500049577  0.4965503117677841
  0.4147706793142376  0.9200350368253609  0.4999035660682338
  0.7483481760787356  0.9287104339462999  0.5005536484656403
  0.4204292590605760  0.2503283560134903  0.5037416600711708
  0.7485202864112850  0.2441152930502426  0.4958446708489745
  0.0858350734890720  0.5793814280318728  0.8291459120244653
  0.4086013879696822  0.5855691521246271  0.8319113540551584
  0.0774672038119348  0.9186231992812637  0.8308403692731829
  0.4148151168640553  0.9079132954065301  0.8252392662425265
  0.7478480401210561  0.9249308338057034  0.8262898461934682
  0.7459911544533142  0.2510190645875738  0.8329523908088845
  0.1279428229601436  0.4539766857620577  0.0850500849416065
  0.4502238708497046  0.4483220283017886  0.0732560794055104
  0.7895223729710494  0.4586168267012454  0.0721528342455500
  0.1354277459011826  0.7917006154730970  0.0819021150635137
  0.4563460792381733  0.7950645292268135  0.0779871029885442
  0.7854397293357991  0.7950220946710687  0.0851579976351999
  0.1380511999871246  0.1263812699748286  0.0871253341020619
  0.4652258587622669  0.1333618688802076  0.0959061768810798
  0.7981857412545139  0.1289467263597714  0.0861565427008202
  0.1317431782709946  0.4537964564374874  0.4236798276614593
  0.4685816958173135  0.4598172794825857  0.4241564009615928
  0.8012629069569499  0.4528602563366420  0.4265506377432970
  0.1359703892256618  0.7939808400801596  0.4183754009389986
  0.4724959200016770  0.7991889234586367  0.4208513345837588
  0.7920250967762783  0.8004725754148225  0.4129777430668540
  0.1221056490437604  0.1258988358333681  0.4232525122948516
  0.4644138434213900  0.1265365427474450  0.4141654506063333
  0.7952265982088491  0.1169138700801895  0.4132115140114507
  0.1398967299410998  0.4542784664336139  0.7515583017443817
  0.4578375059642283  0.4606321782997043  0.7456951480618841
  0.7891406979429192  0.4517531543450701  0.7467864658857337
  0.1319600507261853  0.7905262169937686  0.7539899639660916
  0.4488970921170718  0.7778370346188197  0.7327634849078635
  0.7934539143805708  0.7958480122741776  0.7438604001391198
  0.1223035952647038  0.1269185058860742  0.7475360604332764
  0.4693683995719979  0.1401020811962326  0.7561521206219979
  0.7965468802600242  0.1225099166110795  0.7530110281361857
  0.2898058271135326  0.6293913768332615  0.0896741045556126
  0.6115670928998966  0.6123495124654710  0.0767013485778847
  0.9541470435893942  0.6230205250481191  0.0825368451180850
  0.2870156373951431  0.9586841243478545  0.0823913494753086
  0.6115855870811657  0.9609907338277850  0.0816578671550729
  0.9550039193863071  0.9635876498067901  0.0891959003558185
  0.3080854894870058  0.2908557778900231  0.0821601792672411
  0.6340825651439701  0.2867882953327907  0.0910742090425387
  0.9483513698527020  0.2815032791324583  0.0711952692454005
  0.2934925871134979  0.6327171396996079  0.4217202034696328
  0.6204170948953660  0.6244999945260332  0.4227505623924870
  0.9624326728853489  0.6262099735306705  0.4224351324848854
  0.2823058026083487  0.9652885872723687  0.4199917335506242
  0.6180509221184067  0.9676297720476654  0.4130446672708956
  0.9532976086167366  0.9625712827209725  0.4106239222762937
  0.2907219538756607  0.2977071589732674  0.4241399260175669
  0.6165623295742080  0.2912177292002198  0.4169763433791118
  0.9562683761766877  0.2848870214252273  0.4261717641245539
  0.2814129865109862  0.6250344461921458  0.7407243583148357
  0.6249567165592964  0.6130011532967004  0.7492535195306758
  0.9475348824400811  0.6111768330957901  0.7413323459250236
  0.2932673507586046  0.9720510734459324  0.7538986786839175
  0.6074984829711951  0.9579716135265812  0.7440510300391949
  0.9514777068413167  0.9630463242322520  0.7431953695189080
  0.2882513237692166  0.2832536126350433  0.7507619527109526
  0.6197631195564739  0.2880305493853683  0.7378323992397853
  0.9642199872036343  0.2976590784980075  0.7620555607408548
  0.2117187627969557  0.3704657156709814  0.2516427528898362
  0.5354173635889978  0.3751862444645084  0.2559990626448325
  0.8669188730503450  0.3643508723844349  0.2443377053677125
  0.2068526235513772  0.7243091973553675  0.2512022817629571
  0.5390575789476699  0.7179977700463951  0.2551760228808462
  0.8680399057829291  0.7193313855558969  0.2560782570921702
  0.2133922013688476  0.0467479681247767  0.2464717591766643
  0.5553122670357737  0.0518470253607290  0.2591663270840741
  0.8851806704930212  0.0491594896135013  0.2567391455888526
  0.1998501128873471  0.3716079921833142  0.5783582049116731
  0.5477953343278443  0.3799985125043719  0.5885007935332638
  0.8744782513488332  0.3759465906771382  0.5861974567208676
  0.2168932549025016  0.7109749135180508  0.5834014926712712
  0.5420376883584126  0.7194317750449173  0.5836846462867200
  0.8758151233871914  0.7179817147472320  0.5894299062476023
  0.2073189657770271  0.0498787582837679  0.5852777744507662
  0.5414418562963945  0.0509467594719624  0.5805662361843886
  0.8875574220918949  0.0462846689514222  0.5837148312323848
  0.2093853530224550  0.3651044367741250  0.9112120115951470
  0.5293302868596896  0.3702504519507528  0.9128470407107230
  0.8722083459753804  0.3838928462658799  0.9142597499051277
  0.2079480274574053  0.7149845667567050  0.9146354884797461
  0.5377610335210505  0.7151241495259413  0.9212849850030977
  0.8611352681670397  0.6981702616967667  0.9075571008196093
  0.2136951220122398  0.0414030259907250  0.9067951156794365
  0.5384844137250866  0.0418863946891292  0.9078781536545080
  0.8800613772958243  0.0490709626915731  0.9156568484673642
  0.0391516074830989  0.5400776514884171  0.2517981953388571
  0.3858548444115897  0.5438536483169543  0.2637789445748879
  0.7071502918771344  0.5423688437069956  0.2544209576313392
  0.0456749027652137  0.8850622940254596  0.2624271255547583
  0.3774333716326908  0.8693232452583644  0.2510656567382910
  0.7086555720334147  0.8839870633072735  0.2584663990464691
  0.0335301532581482  0.2037043369376761  0.2469994522415035
  0.3810458997786412  0.1990354807148407  0.2445814712117169
  0.7156175894344230  0.1979559516039942  0.2461917410561654
  0.0420751311884331  0.5269201876849294  0.5864168154291534
  0.3720125008712287  0.5368029434488903  0.5897849044656454
  0.7073685430540309  0.5293570409193080  0.5847928562806359
  0.0417717024156303  0.8882807509330704  0.5914458419331154
  0.3728134303920143  0.8704964588647925  0.5827436619412651
  0.7092434983980809  0.8677189596353259  0.5794357045069489
  0.0442808427495862  0.2032374237558869  0.5797383901498705
  0.3728510360468178  0.1993334296680871  0.5827759646173050
  0.7009355619451583  0.2107300292139414  0.5844144149037476
  0.0341936166059966  0.5359698486458697  0.9104445769121341
  0.3709311045285233  0.5276495207303569  0.9135997049995197
  0.7150118176236049  0.5402561054454011  0.9124426754188377
  0.0466685284442647  0.8712792650812560  0.9211681099899423
  0.3731582043931141  0.8649200307416862  0.9118913450919308
  0.7034661254888661  0.8767515009333025  0.9100475132034944
  0.0418742159045564  0.2020968665263183  0.9039593976504747
  0.3689994784333877  0.2117329534846206  0.9103672778045819
  0.7070212695190605  0.1957773747069709  0.9145938160989289

  0.00000000E+00  0.00000000E+00  0.00000000E+00
  0.00000000E+00  0.00000000E+00  0.00000000E+00
  0.00000000E+00  0.00000000E+00  0.00000000E+00
  0.00000000E+00  0.00000000E+00  0.00000000E+00
  0.00000000E+00  0.00000000E+00  0.00000000E+00
  0.00000000E+00  0.00000000E+00  0.00000000E+00
  0.00000000E+00  0.00000000E+00  0.00000000E+00
  0.00000000E+00  0.00000000E+00  0.00000000E+00
  0.00000000E+00  0.00000000E+00  0.00000000E+00
  0.00000000E+00  0.00000000E+00  0.00000000E+00
  0.00000000E+00  0.00000000E+00  0.00000000E+00
  0.00000000E+00  0.00000000E+00  0.00000000E+00
  0.00000000E+00  0.00000000E+00  0.00000000E+00
  0.00000000E+00  0.00000000E+00  0.00000000E+00
  0.00000000E+00  0.00000000E+00  0.00000000E+00
  0.00000000E+00  0.00000000E+00  0.00000000E+00
  0.00000000E+00  0.00000000E+00  0.00000000E+00
  0.00000000E+00  0.00000000E+00  0.00000000E+00
  0.00000000E+00  0.00000000E+00  0.00000000E+00
  0.00000000E+00  0.00000000E+00  0.00000000E+00
  0.00000000E+00  0.00000000E+00  0.00000000E+00
  0.00000000E+00  0.00000000E+00  0.00000000E+00
  0.00000000E+00  0.00000000E+00  0.00000000E+00
  0.00000000E+00  0.00000000E+00  0.00000000E+00
  0.00000000E+00  0.00000000E+00  0.00000000E+00
  0.00000000E+00  0.00000000E+00  0.00000000E+00
  0.00000000E+00  0.00000000E+00  0.00000000E+00
  0.00000000E+00  0.00000000E+00  0.00000000E+00
  0.00000000E+00  0.00000000E+00  0.00000000E+00
  0.00000000E+00  0.00000000E+00  0.00000000E+00
  0.00000000E+00  0.00000000E+00  0.00000000E+00
  0.00000000E+00  0.00000000E+00  0.00000000E+00
  0.00000000E+00  0.00000000E+00  0.00000000E+00
  0.00000000E+00  0.00000000E+00  0.00000000E+00
  0.00000000E+00  0.00000000E+00  0.00000000E+00
  0.00000000E+00  0.00000000E+00  0.00000000E+00
  0.00000000E+00  0.00000000E+00  0.00000000E+00
  0.00000000E+00  0.00000000E+00  0.00000000E+00
  0.00000000E+00  0.00000000E+00  0.00000000E+00
  0.00000000E+00  0.00000000E+00  0.00000000E+00
  0.00000000E+00  0.00000000E+00  0.00000000E+00
  0.00000000E+00  0.00000000E+00  0.00000000E+00
  0.00000000E+00  0.00000000E+00  0.00000000E+00
  0.00000000E+00  0.00000000E+00  0.00000000E+00
  0.00000000E+00  0.00000000E+00  0.00000000E+00
  0.00000000E+00  0.00000000E+00  0.00000000E+00
  0.00000000E+00  0.00000000E+00  0.00000000E+00
  0.00000000E+00  0.00000000E+00  0.00000000E+00
  0.00000000E+00  0.00000000E+00  0.00000000E+00
  0.00000000E+00  0.00000000E+00  0.00000000E+00
  0.00000000E+00  0.00000000E+00  0.00000000E+00
  0.00000000E+00  0.00000000E+00  0.00000000E+00
  0.00000000E+00  0.00000000E+00  0.00000000E+00
  0.00000000E+00  0.00000000E+00  0.00000000E+00
  0.00000000E+00  0.00000000E+00  0.00000000E+00
  0.00000000E+00  0.00000000E+00  0.00000000E+00
  0.00000000E+00  0.00000000E+00  0.00000000E+00
  0.00000000E+00  0.00000000E+00  0.00000000E+00
  0.00000000E+00  0.00000000E+00  0.00000000E+00
  0.00000000E+00  0.00000000E+00  0.00000000E+00
  0.00000000E+00  0.00000000E+00  0.00000000E+00
  0.00000000E+00  0.00000000E+00  0.00000000E+00
  0.00000000E+00  0.00000000E+00  0.00000000E+00
  0.00000000E+00  0.00000000E+00  0.00000000E+00
  0.00000000E+00  0.00000000E+00  0.00000000E+00
  0.00000000E+00  0.00000000E+00  0.00000000E+00
  0.00000000E+00  0.00000000E+00  0.00000000E+00
  0.00000000E+00  0.00000000E+00  0.00000000E+00
  0.00000000E+00  0.00000000E+00  0.00000000E+00
  0.00000000E+00  0.00000000E+00  0.00000000E+00
  0.00000000E+00  0.00000000E+00  0.00000000E+00
  0.00000000E+00  0.00000000E+00  0.00000000E+00
  0.00000000E+00  0.00000000E+00  0.00000000E+00
  0.00000000E+00  0.00000000E+00  0.00000000E+00
  0.00000000E+00  0.00000000E+00  0.00000000E+00
  0.00000000E+00  0.00000000E+00  0.00000000E+00
  0.00000000E+00  0.00000000E+00  0.00000000E+00
  0.00000000E+00  0.00000000E+00  0.00000000E+00
  0.00000000E+00  0.00000000E+00  0.00000000E+00
  0.00000000E+00  0.00000000E+00  0.00000000E+00
  0.00000000E+00  0.00000000E+00  0.00000000E+00
  0.00000000E+00  0.00000000E+00  0.00000000E+00
  0.00000000E+00  0.00000000E+00  0.00000000E+00
  0.00000000E+00  0.00000000E+00  0.00000000E+00
  0.00000000E+00  0.00000000E+00  0.00000000E+00
  0.00000000E+00  0.00000000E+00  0.00000000E+00
  0.00000000E+00  0.00000000E+00  0.00000000E+00
  0.00000000E+00  0.00000000E+00  0.00000000E+00
  0.00000000E+00  0.00000000E+00  0.00000000E+00
  0.00000000E+00  0.00000000E+00  0.00000000E+00
  0.00000000E+00  0.00000000E+00  0.00000000E+00
  0.00000000E+00  0.00000000E+00  0.00000000E+00
  0.00000000E+00  0.00000000E+00  0.00000000E+00
  0.00000000E+00  0.00000000E+00  0.00000000E+00
  0.00000000E+00  0.00000000E+00  0.00000000E+00
  0.00000000E+00  0.00000000E+00  0.00000000E+00
  0.00000000E+00  0.00000000E+00  0.00000000E+00
  0.00000000E+00  0.00000000E+00  0.00000000E+00
  0.00000000E+00  0.00000000E+00  0.00000000E+00
  0.00000000E+00  0.00000000E+00  0.00000000E+00
  0.00000000E+00  0.00000000E+00  0.00000000E+00
  0.00000000E+00  0.00000000E+00  0.00000000E+00
  0.00000000E+00  0.00000000E+00  0.00000000E+00
  0.00000000E+00  0.00000000E+00  0.00000000E+00
  0.00000000E+00  0.00000000E+00  0.00000000E+00
  0.00000000E+00  0.00000000E+00  0.00000000E+00
  0.00000000E+00  0.00000000E+00  0.00000000E+00
  0.00000000E+00  0.00000000E+00  0.00000000E+00
  0.00000000E+00  0.00000000E+00  0.00000000E+00
  0.00000000E+00  0.00000000E+00  0.00000000E+00
  0.00000000E+00  0.00000000E+00  0.00000000E+00
  0.00000000E+00  0.00000000E+00  0.00000000E+00
  0.00000000E+00  0.00000000E+00  0.00000000E+00
  0.00000000E+00  0.00000000E+00  0.00000000E+00
  0.00000000E+00  0.00000000E+00  0.00000000E+00
  0.00000000E+00  0.00000000E+00  0.00000000E+00
  0.00000000E+00  0.00000000E+00  0.00000000E+00
  0.00000000E+00  0.00000000E+00  0.00000000E+00
  0.00000000E+00  0.00000000E+00  0.00000000E+00
  0.00000000E+00  0.00000000E+00  0.00000000E+00
  0.00000000E+00  0.00000000E+00  0.00000000E+00
  0.00000000E+00  0.00000000E+00  0.00000000E+00
  0.00000000E+00  0.00000000E+00  0.00000000E+00
  0.00000000E+00  0.00000000E+00  0.00000000E+00
  0.00000000E+00  0.00000000E+00  0.00000000E+00
  0.00000000E+00  0.00000000E+00  0.00000000E+00
  0.00000000E+00  0.00000000E+00  0.00000000E+00
  0.00000000E+00  0.00000000E+00  0.00000000E+00
  0.00000000E+00  0.00000000E+00  0.00000000E+00
  0.00000000E+00  0.00000000E+00  0.00000000E+00
  0.00000000E+00  0.00000000E+00  0.00000000E+00
  0.00000000E+00  0.00000000E+00  0.00000000E+00
  0.00000000E+00  0.00000000E+00  0.00000000E+00
  0.00000000E+00  0.00000000E+00  0.00000000E+00
  0.00000000E+00  0.00000000E+00  0.00000000E+00
  0.00000000E+00  0.00000000E+00  0.00000000E+00
  0.00000000E+00  0.00000000E+00  0.00000000E+00
  0.00000000E+00  0.00000000E+00  0.00000000E+00
  0.00000000E+00  0.00000000E+00  0.00000000E+00
  0.00000000E+00  0.00000000E+00  0.00000000E+00
  0.00000000E+00  0.00000000E+00  0.00000000E+00
  0.00000000E+00  0.00000000E+00  0.00000000E+00
  0.00000000E+00  0.00000000E+00  0.00000000E+00
  0.00000000E+00  0.00000000E+00  0.00000000E+00
  0.00000000E+00  0.00000000E+00  0.00000000E+00
  0.00000000E+00  0.00000000E+00  0.00000000E+00
  0.00000000E+00  0.00000000E+00  0.00000000E+00
  0.00000000E+00  0.00000000E+00  0.00000000E+00
  0.00000000E+00  0.00000000E+00  0.00000000E+00
  0.00000000E+00  0.00000000E+00  0.00000000E+00
  0.00000000E+00  0.00000000E+00  0.00000000E+00
  0.00000000E+00  0.00000000E+00  0.00000000E+00
  0.00000000E+00  0.00000000E+00  0.00000000E+00
  0.00000000E+00  0.00000000E+00  0.00000000E+00
  0.00000000E+00  0.00000000E+00  0.00000000E+00
  0.00000000E+00  0.00000000E+00  0.00000000E+00
  0.00000000E+00  0.00000000E+00  0.00000000E+00
  0.00000000E+00  0.00000000E+00  0.00000000E+00
  0.00000000E+00  0.00000000E+00  0.00000000E+00
  0.00000000E+00  0.00000000E+00  0.00000000E+00
  0.00000000E+00  0.00000000E+00  0.00000000E+00
  0.00000000E+00  0.00000000E+00  0.00000000E+00
  0.00000000E+00  0.00000000E+00  0.00000000E+00
  0.00000000E+00  0.00000000E+00  0.00000000E+00
  0.00000000E+00  0.00000000E+00  0.00000000E+00
  0.00000000E+00  0.00000000E+00  0.00000000E+00
  0.00000000E+00  0.00000000E+00  0.00000000E+00
  0.00000000E+00  0.00000000E+00  0.00000000E+00
  0.00000000E+00  0.00000000E+00  0.00000000E+00
  0.00000000E+00  0.00000000E+00  0.00000000E+00
  0.00000000E+00  0.00000000E+00  0.00000000E+00
  0.00000000E+00  0.00000000E+00  0.00000000E+00
  0.00000000E+00  0.00000000E+00  0.00000000E+00
  0.00000000E+00  0.00000000E+00  0.00000000E+00
  0.00000000E+00  0.00000000E+00  0.00000000E+00
  0.00000000E+00  0.00000000E+00  0.00000000E+00
  0.00000000E+00  0.00000000E+00  0.00000000E+00
  0.00000000E+00  0.00000000E+00  0.00000000E+00
  0.00000000E+00  0.00000000E+00  0.00000000E+00
  0.00000000E+00  0.00000000E+00  0.00000000E+00
  0.00000000E+00  0.00000000E+00  0.00000000E+00
  0.00000000E+00  0.00000000E+00  0.00000000E+00
  0.00000000E+00  0.00000000E+00  0.00000000E+00
  0.00000000E+00  0.00000000E+00  0.00000000E+00
  0.00000000E+00  0.00000000E+00  0.00000000E+00
  0.00000000E+00  0.00000000E+00  0.00000000E+00
  0.00000000E+00  0.00000000E+00  0.00000000E+00
  0.00000000E+00  0.00000000E+00  0.00000000E+00
  0.00000000E+00  0.00000000E+00  0.00000000E+00
  0.00000000E+00  0.00000000E+00  0.00000000E+00
  0.00000000E+00  0.00000000E+00  0.00000000E+00
  0.00000000E+00  0.00000000E+00  0.00000000E+00
  0.00000000E+00  0.00000000E+00  0.00000000E+00
  0.00000000E+00  0.00000000E+00  0.00000000E+00
  0.00000000E+00  0.00000000E+00  0.00000000E+00
  0.00000000E+00  0.00000000E+00  0.00000000E+00
  0.00000000E+00  0.00000000E+00  0.00000000E+00
  0.00000000E+00  0.00000000E+00  0.00000000E+00
  0.00000000E+00  0.00000000E+00  0.00000000E+00
  0.00000000E+00  0.00000000E+00  0.00000000E+00
  0.00000000E+00  0.00000000E+00  0.00000000E+00
  0.00000000E+00  0.00000000E+00  0.00000000E+00
  0.00000000E+00  0.00000000E+00  0.00000000E+00
  0.00000000E+00  0.00000000E+00  0.00000000E+00
  0.00000000E+00  0.00000000E+00  0.00000000E+00
  0.00000000E+00  0.00000000E+00  0.00000000E+00
  0.00000000E+00  0.00000000E+00  0.00000000E+00
  0.00000000E+00  0.00000000E+00  0.00000000E+00
  0.00000000E+00  0.00000000E+00  0.00000000E+00
  0.00000000E+00  0.00000000E+00  0.00000000E+00
  0.00000000E+00  0.00000000E+00  0.00000000E+00
  0.00000000E+00  0.00000000E+00  0.00000000E+00
  0.00000000E+00  0.00000000E+00  0.00000000E+00
  0.00000000E+00  0.00000000E+00  0.00000000E+00
  0.00000000E+00  0.00000000E+00  0.00000000E+00
  0.00000000E+00  0.00000000E+00  0.00000000E+00
