In30 Ga24 Cu12 Ag42 Se108               
   1.0000000000000000     
    16.4633326918238154   -0.0002601171180998   -7.5343105850916539
    -3.4439217001262277   16.1006025200636493   -7.5214564378574247
     0.0115245777964045    0.0148862942041650   21.7822303493139344
   In   Ga   Cu   Ag   Se
    30    24    12    42   108
Direct
  0.1712159783039411  0.8357556670546842  0.0017268151675083
  0.8370274341188662  0.8326389401037773  0.0042868512050802
  0.1673713078835988  0.1697085627058499  0.9989394390826831
  0.4989527551040638  0.1723327500290210  0.0025019216392153
  0.8337856793955254  0.1689405103138881  0.0023984037799423
  0.5004556941678402  0.5072175219307056  0.3334750252593679
  0.8348182727387155  0.5007859578256415  0.3329625727014189
  0.8358104778478435  0.8290645847530556  0.3324326521607546
  0.4968185516541794  0.1644825571751909  0.3337860433794475
  0.4945316040817218  0.4929578917228028  0.6653476871417823
  0.8341453216914942  0.4979268751444579  0.6656970265662210
  0.8323047085824697  0.1633053231111319  0.6618025252288575
  0.2503521394712607  0.4226203461649973  0.1676574928291856
  0.9216316624139367  0.4151805162386779  0.1711460062198924
  0.2527412611065216  0.7481768966187587  0.1686848057653592
  0.2499767942099993  0.0866930809353121  0.1715901703889529
  0.5872124486746984  0.0812906796381156  0.1693807332619741
  0.9198542242453058  0.0922802749403928  0.1716175745254915
  0.5790389808548397  0.4116674742243518  0.4967848167235260
  0.9247589623723940  0.4115716998502563  0.4993030504981135
  0.2486281661052061  0.7486201562045594  0.4978683466435854
  0.5820815276988327  0.7587867570276643  0.5011464623029696
  0.5766094963479347  0.0793099261634325  0.4993833423744505
  0.2507958524656573  0.4140176602638377  0.8331201117188556
  0.9211424184179720  0.4174837280278396  0.8383480144365123
  0.2510888939663545  0.7476228008830645  0.8305598036304787
  0.5793971864760934  0.7530093292501832  0.8344950372890096
  0.9210904522855330  0.7547847669221852  0.8312599877168836
  0.5818482990432869  0.0841808147726297  0.8286579363851274
  0.9137647507223221  0.0787679630089571  0.8304578543998673
  0.1727824360291734  0.4989323768591234  0.0030864119250040
  0.4977422938611014  0.5002122442176642  0.0045643452564690
  0.8297721482439613  0.4980133215095464  0.0013198042544076
  0.5006869648373424  0.8332870441465516  0.0038872419732101
  0.1656468085598846  0.4999745955945585  0.3340844192891410
  0.1627800522404570  0.8295110581664602  0.3337615919986661
  0.4949705960905533  0.8291176757549437  0.3272972764635114
  0.1686969765018560  0.1734217773520044  0.3397623505288507
  0.8424569760624721  0.1666605305153794  0.3336961156474416
  0.1688376283775241  0.4959496273416661  0.6629096096567366
  0.1638980339445268  0.8375571036222453  0.6665592790366830
  0.4975133642850196  0.8355005936087920  0.6639330336461668
  0.8360368500574751  0.8371585615850918  0.6634988427414470
  0.1661637871674557  0.1645243139419534  0.6603570671261423
  0.4954092696141359  0.1659805877500844  0.6656844756634825
  0.5832624504081920  0.4190037544038177  0.1665513772583722
  0.5752966689603767  0.7480504723805694  0.1654732455277355
  0.9187196916715621  0.7428057248836382  0.1676422687631103
  0.2431915896244377  0.4118829617693294  0.4971505685781850
  0.9207184706813649  0.7504202492009924  0.5001840025852786
  0.2473646073304039  0.0850916830112709  0.4973437828642133
  0.9221887635077195  0.0846199002205097  0.4956139291908102
  0.5795737752900294  0.4137661175803586  0.8374665272542643
  0.2463847483375545  0.0849376492690155  0.8297048733961603
  0.3377261294705960  0.3398729804817719  0.0037994655667006
  0.0049611789659849  0.3324243261972910  0.3346116315702901
  0.0021273690678569  0.6681565920204662  0.3355693141833669
  0.3318118721540912  0.6670405072623851  0.3318752909451774
  0.6642176684041061  0.9989764899766840  0.6668039325561850
  0.4178752057667694  0.5778291489347467  0.1643039406073754
  0.4200403134318336  0.9157538886238399  0.1680578019588594
  0.0883179856550456  0.2525736948930586  0.1756110823641066
  0.7541674171213799  0.2569654036637914  0.1755021009867548
  0.0841356041729711  0.2482069025444673  0.4972492537093487
  0.4096364131256394  0.2478098895168728  0.4996680673527578
  0.0849526555883955  0.9181526762613075  0.8276334475644873
  0.0002603072370420  0.3354963949869614  0.0040078080229620
  0.6620220459088060  0.3337975289851229  0.0041699299284090
  0.0015950662683153  0.6617900980192601  0.0016278012833126
  0.3398812143562679  0.6700757230174261  0.0086018058953314
  0.6680937056307670  0.6629753139280368  0.0040868060784689
  0.0072095260623328  0.0027533134194897  0.0000762584686811
  0.3260443238873734  0.9990266787082973  0.9958136426076720
  0.6677456781631506  0.0045140509971304  0.0015893689088671
  0.3223439495579896  0.3364118380234089  0.3371567279511325
  0.6701201979390774  0.3329831341934550  0.3271387543976445
  0.6605570629169009  0.6682654949619788  0.3262748102806441
  0.0100581303610028  0.9996426227416819  0.3328286243525369
  0.3320320313272376  0.9921913045875854  0.3347427801701386
  0.6718691800801793  0.9997143792964209  0.3365674996742385
  0.0051839387821886  0.3249114373457829  0.6630472121379185
  0.3300747688787311  0.3266748436344002  0.6563631624289457
  0.6624944974833937  0.3319496840013088  0.6697129760755161
  0.0032320824468286  0.6716805802394816  0.6637752942632247
  0.3325045919760896  0.6677455990415169  0.6643494606500155
  0.6608917113830941  0.6721720812391894  0.6671276172937368
  0.9991092126998353  0.9998101648110307  0.6631478029665629
  0.3300783601455777  0.9984178476042231  0.6640331076675565
  0.0828406402474187  0.5885357803951123  0.1733977574208581
  0.7488281737283273  0.5861781933840220  0.1629073606995775
  0.0846329106240304  0.9214360647460538  0.1739066061075007
  0.7494969004388068  0.9146113341529940  0.1696230461136565
  0.4174507598396247  0.2533859946909445  0.1673314721156274
  0.0841166127832977  0.5809463732496312  0.4955846349213786
  0.4095088750689797  0.5832420048074241  0.4997243015044859
  0.7538275295520265  0.5869966685149279  0.5059127199519793
  0.0855355871636547  0.9183135177833250  0.4998418132868352
  0.4162764988374619  0.9208178361651065  0.4957230212905515
  0.7510518201150091  0.9145584280715013  0.4987014945755135
  0.7493572101353436  0.2416888291112969  0.4933469953875971
  0.0852907135885133  0.5788262410591827  0.8307479612144562
  0.4181791710591938  0.5837656001657905  0.8377713230608279
  0.7475422220818970  0.5829012736769954  0.8381556322798360
  0.4100876193887046  0.9178141739702497  0.8316798846005611
  0.7435312263317257  0.9098943376886481  0.8240271909157002
  0.0930138862983938  0.2489172804499233  0.8330827150309119
  0.4125980157946145  0.2527933550423569  0.8369926574238491
  0.7477211990243404  0.2497695495838954  0.8261921910907191
  0.1254354045294690  0.4652158255858154  0.0808639410608620
  0.4588990022447703  0.4570004419336371  0.0849843756875330
  0.7955160642541372  0.4570323476858533  0.0820628544230502
  0.1262513864715942  0.7935888479366895  0.0858097819290222
  0.4639193079084620  0.8006215569102153  0.0898124721339073
  0.8011150918636218  0.7871965527803084  0.0918394979181443
  0.1264531353756624  0.1381663616394633  0.0913997662280011
  0.4589313467422613  0.1235658328918490  0.0848975240357746
  0.7892675269383673  0.1378536500840895  0.0922050542539026
  0.1267157625997939  0.4510921559716365  0.4113824644880069
  0.4554277074204478  0.4592716825817575  0.4140489222279342
  0.7979098610638857  0.4607113317773468  0.4212009420563518
  0.1190467176548324  0.7866265703523325  0.4091635383199588
  0.4500674839641619  0.7882058879620004  0.4047460236574167
  0.7995091484213788  0.7865851623880147  0.4200205001484321
  0.1315791249792042  0.1337970828514088  0.4216219507186310
  0.4505510264628896  0.1302534187238393  0.4212014881747805
  0.8043510207980304  0.1235745032996576  0.4131166632658818
  0.1290738574448156  0.4565830533406583  0.7424334963056580
  0.4612004161772916  0.4528395407294923  0.7563976605405855
  0.7926789721822729  0.4573084182032474  0.7520352666433894
  0.1284084721540992  0.8025244973962486  0.7507095942449169
  0.4582221517471297  0.7968729187928929  0.7442308740211843
  0.7951787521930314  0.7920533233506717  0.7394009728836437
  0.1318148954883469  0.1236360773840914  0.7432174556468354
  0.4551909636352889  0.1295277748659842  0.7457105109685003
  0.7832695060358290  0.1156950346580814  0.7416896933567330
  0.2949745271172830  0.6154878255802601  0.0864211554306138
  0.6110881168088724  0.6252579737646826  0.0852560652635503
  0.9482077462085314  0.6199820692980822  0.0817605298500155
  0.3018363603055505  0.9602859102005823  0.0931288985528411
  0.6205835792321395  0.9503061806940849  0.0789771371378336
  0.9602261775724443  0.9635865458239081  0.0855016049331141
  0.2947280763208795  0.2986385845232959  0.0798215872270163
  0.6313993135603795  0.2974017230295800  0.0979263593969790
  0.9701727182410806  0.2880768911635485  0.0922648769228331
  0.2851484566824709  0.6198454072022344  0.4052788736312820
  0.6285474887682128  0.6323175215414309  0.4203805266390006
  0.9596002339556975  0.6336378500392499  0.4157485565777108
  0.2758993205293550  0.9559961090202336  0.4159623672317281
  0.6147983556616197  0.9481189966968273  0.4115669299551854
  0.9572567561550898  0.9624879500848422  0.4164891840035168
  0.2898427222930522  0.2909833878390202  0.4253747490055417
  0.6248054549706694  0.2892694028843792  0.4112953075962906
  0.9670874024951246  0.2834249745940696  0.4113089104377678
  0.2878292575531987  0.6151267540615137  0.7439887496234903
  0.6199879753961284  0.6230992753636855  0.7497983539176261
  0.9612271049797982  0.6247747443188629  0.7473712129068488
  0.2809328695694759  0.9610304007372008  0.7483290488113070
  0.6179382324656899  0.9538090213264141  0.7386534003111507
  0.9604270916946902  0.9513396292163563  0.7477951744728912
  0.2834004479055210  0.2838731760147937  0.7407435276998484
  0.6101417908755167  0.2909814414704712  0.7508631055565331
  0.9603646028737529  0.2896749568521244  0.7508041940261094
  0.1979137938769782  0.3788382595961295  0.2486448616907424
  0.5441619390312198  0.3818896226216069  0.2467805054960337
  0.8798154449501112  0.3670603868689781  0.2552150335433652
  0.2141098341796095  0.7147338840374715  0.2613713381529124
  0.5285827973618709  0.7068996419180422  0.2414277511066487
  0.8855924233462815  0.7039068522938265  0.2508505278277013
  0.2074874850843571  0.0531934934681502  0.2612525602992761
  0.5372047067380947  0.0344749825306181  0.2489436200988919
  0.8768908781799922  0.0447623819992558  0.2536435350198403
  0.1989679916631246  0.3726886849827551  0.5756206163279742
  0.5298342680759802  0.3626932733659416  0.5757985155532310
  0.8766496707908757  0.3704008208125771  0.5814646476974730
  0.2046620832781798  0.7180018409831774  0.5881849918530904
  0.5336854054889173  0.7157075209831802  0.5835277063243822
  0.8762554529507582  0.7190311154040856  0.5816258476403462
  0.2087877434580108  0.0499126865585708  0.5798506267414965
  0.5454847407060655  0.0464895497386664  0.5951498660133083
  0.8781699319412510  0.0438942964284550  0.5725033990988280
  0.2169637968121805  0.3794736480000509  0.9274303715534629
  0.5385888256770457  0.3835088054049649  0.9219766082483929
  0.8716595962041822  0.3808732232323777  0.9226723473237399
  0.2119833166383813  0.7070279016635155  0.9177913110584583
  0.5412063560475318  0.7152758608777319  0.9246809157387901
  0.8780926930375230  0.7088339262557142  0.9148925240651593
  0.2006141192896393  0.0390891397661974  0.9045953057609921
  0.5387938895869127  0.0450964573433623  0.9148408836422632
  0.8715872295138212  0.0386336713086592  0.9162002670113409
  0.0454233353464204  0.5472084921146987  0.2632735846866083
  0.3750784233167721  0.5549550146706537  0.2501537067625819
  0.7028783996902987  0.5363412052644421  0.2438586700973957
  0.0409765841875753  0.8601824925195842  0.2482561572847217
  0.3823075875494695  0.8752264060643000  0.2477220364961497
  0.6998897330346239  0.8613965580598943  0.2460023064597863
  0.0526688450936135  0.2184442537117590  0.2588903558342466
  0.3742493199679799  0.2151808514892295  0.2538144814282717
  0.7216928329828036  0.2051537970660675  0.2518212502032782
  0.0513741527619445  0.5397815085728439  0.5870966473420012
  0.3628646969649907  0.5301002511752202  0.5773604450952945
  0.7043447859122622  0.5408990296584975  0.5848578365158801
  0.0420055352606070  0.8680385412887262  0.5809784785168688
  0.3788306427024608  0.8733833464642800  0.5831999234579470
  0.7135774301429691  0.8848968051651127  0.5931422796413344
  0.0466040621254535  0.2004224135555575  0.5741763944199505
  0.3756278519956027  0.1969048847030592  0.5750050956217123
  0.7039721877210212  0.2063397048895865  0.5799208442927011
  0.0549020353662968  0.5387481292084217  0.9226523584560837
  0.3807757498403745  0.5389238445940734  0.9242402833186318
  0.7046537973278504  0.5294460913934245  0.9179903036903028
  0.0510780976227778  0.8812957102443875  0.9110486266194826
  0.3822843427946481  0.8717003726759458  0.9222014530864087
  0.7106562635274969  0.8756241352723961  0.9179893265549239
  0.0380362878305434  0.2085419906471628  0.9129625543780904
  0.3631531190783193  0.2107264645431641  0.9188622522556429
  0.7083029763514475  0.2118128325642346  0.9166428792285686

  0.00000000E+00  0.00000000E+00  0.00000000E+00
  0.00000000E+00  0.00000000E+00  0.00000000E+00
  0.00000000E+00  0.00000000E+00  0.00000000E+00
  0.00000000E+00  0.00000000E+00  0.00000000E+00
  0.00000000E+00  0.00000000E+00  0.00000000E+00
  0.00000000E+00  0.00000000E+00  0.00000000E+00
  0.00000000E+00  0.00000000E+00  0.00000000E+00
  0.00000000E+00  0.00000000E+00  0.00000000E+00
  0.00000000E+00  0.00000000E+00  0.00000000E+00
  0.00000000E+00  0.00000000E+00  0.00000000E+00
  0.00000000E+00  0.00000000E+00  0.00000000E+00
  0.00000000E+00  0.00000000E+00  0.00000000E+00
  0.00000000E+00  0.00000000E+00  0.00000000E+00
  0.00000000E+00  0.00000000E+00  0.00000000E+00
  0.00000000E+00  0.00000000E+00  0.00000000E+00
  0.00000000E+00  0.00000000E+00  0.00000000E+00
  0.00000000E+00  0.00000000E+00  0.00000000E+00
  0.00000000E+00  0.00000000E+00  0.00000000E+00
  0.00000000E+00  0.00000000E+00  0.00000000E+00
  0.00000000E+00  0.00000000E+00  0.00000000E+00
  0.00000000E+00  0.00000000E+00  0.00000000E+00
  0.00000000E+00  0.00000000E+00  0.00000000E+00
  0.00000000E+00  0.00000000E+00  0.00000000E+00
  0.00000000E+00  0.00000000E+00  0.00000000E+00
  0.00000000E+00  0.00000000E+00  0.00000000E+00
  0.00000000E+00  0.00000000E+00  0.00000000E+00
  0.00000000E+00  0.00000000E+00  0.00000000E+00
  0.00000000E+00  0.00000000E+00  0.00000000E+00
  0.00000000E+00  0.00000000E+00  0.00000000E+00
  0.00000000E+00  0.00000000E+00  0.00000000E+00
  0.00000000E+00  0.00000000E+00  0.00000000E+00
  0.00000000E+00  0.00000000E+00  0.00000000E+00
  0.00000000E+00  0.00000000E+00  0.00000000E+00
  0.00000000E+00  0.00000000E+00  0.00000000E+00
  0.00000000E+00  0.00000000E+00  0.00000000E+00
  0.00000000E+00  0.00000000E+00  0.00000000E+00
  0.00000000E+00  0.00000000E+00  0.00000000E+00
  0.00000000E+00  0.00000000E+00  0.00000000E+00
  0.00000000E+00  0.00000000E+00  0.00000000E+00
  0.00000000E+00  0.00000000E+00  0.00000000E+00
  0.00000000E+00  0.00000000E+00  0.00000000E+00
  0.00000000E+00  0.00000000E+00  0.00000000E+00
  0.00000000E+00  0.00000000E+00  0.00000000E+00
  0.00000000E+00  0.00000000E+00  0.00000000E+00
  0.00000000E+00  0.00000000E+00  0.00000000E+00
  0.00000000E+00  0.00000000E+00  0.00000000E+00
  0.00000000E+00  0.00000000E+00  0.00000000E+00
  0.00000000E+00  0.00000000E+00  0.00000000E+00
  0.00000000E+00  0.00000000E+00  0.00000000E+00
  0.00000000E+00  0.00000000E+00  0.00000000E+00
  0.00000000E+00  0.00000000E+00  0.00000000E+00
  0.00000000E+00  0.00000000E+00  0.00000000E+00
  0.00000000E+00  0.00000000E+00  0.00000000E+00
  0.00000000E+00  0.00000000E+00  0.00000000E+00
  0.00000000E+00  0.00000000E+00  0.00000000E+00
  0.00000000E+00  0.00000000E+00  0.00000000E+00
  0.00000000E+00  0.00000000E+00  0.00000000E+00
  0.00000000E+00  0.00000000E+00  0.00000000E+00
  0.00000000E+00  0.00000000E+00  0.00000000E+00
  0.00000000E+00  0.00000000E+00  0.00000000E+00
  0.00000000E+00  0.00000000E+00  0.00000000E+00
  0.00000000E+00  0.00000000E+00  0.00000000E+00
  0.00000000E+00  0.00000000E+00  0.00000000E+00
  0.00000000E+00  0.00000000E+00  0.00000000E+00
  0.00000000E+00  0.00000000E+00  0.00000000E+00
  0.00000000E+00  0.00000000E+00  0.00000000E+00
  0.00000000E+00  0.00000000E+00  0.00000000E+00
  0.00000000E+00  0.00000000E+00  0.00000000E+00
  0.00000000E+00  0.00000000E+00  0.00000000E+00
  0.00000000E+00  0.00000000E+00  0.00000000E+00
  0.00000000E+00  0.00000000E+00  0.00000000E+00
  0.00000000E+00  0.00000000E+00  0.00000000E+00
  0.00000000E+00  0.00000000E+00  0.00000000E+00
  0.00000000E+00  0.00000000E+00  0.00000000E+00
  0.00000000E+00  0.00000000E+00  0.00000000E+00
  0.00000000E+00  0.00000000E+00  0.00000000E+00
  0.00000000E+00  0.00000000E+00  0.00000000E+00
  0.00000000E+00  0.00000000E+00  0.00000000E+00
  0.00000000E+00  0.00000000E+00  0.00000000E+00
  0.00000000E+00  0.00000000E+00  0.00000000E+00
  0.00000000E+00  0.00000000E+00  0.00000000E+00
  0.00000000E+00  0.00000000E+00  0.00000000E+00
  0.00000000E+00  0.00000000E+00  0.00000000E+00
  0.00000000E+00  0.00000000E+00  0.00000000E+00
  0.00000000E+00  0.00000000E+00  0.00000000E+00
  0.00000000E+00  0.00000000E+00  0.00000000E+00
  0.00000000E+00  0.00000000E+00  0.00000000E+00
  0.00000000E+00  0.00000000E+00  0.00000000E+00
  0.00000000E+00  0.00000000E+00  0.00000000E+00
  0.00000000E+00  0.00000000E+00  0.00000000E+00
  0.00000000E+00  0.00000000E+00  0.00000000E+00
  0.00000000E+00  0.00000000E+00  0.00000000E+00
  0.00000000E+00  0.00000000E+00  0.00000000E+00
  0.00000000E+00  0.00000000E+00  0.00000000E+00
  0.00000000E+00  0.00000000E+00  0.00000000E+00
  0.00000000E+00  0.00000000E+00  0.00000000E+00
  0.00000000E+00  0.00000000E+00  0.00000000E+00
  0.00000000E+00  0.00000000E+00  0.00000000E+00
  0.00000000E+00  0.00000000E+00  0.00000000E+00
  0.00000000E+00  0.00000000E+00  0.00000000E+00
  0.00000000E+00  0.00000000E+00  0.00000000E+00
  0.00000000E+00  0.00000000E+00  0.00000000E+00
  0.00000000E+00  0.00000000E+00  0.00000000E+00
  0.00000000E+00  0.00000000E+00  0.00000000E+00
  0.00000000E+00  0.00000000E+00  0.00000000E+00
  0.00000000E+00  0.00000000E+00  0.00000000E+00
  0.00000000E+00  0.00000000E+00  0.00000000E+00
  0.00000000E+00  0.00000000E+00  0.00000000E+00
  0.00000000E+00  0.00000000E+00  0.00000000E+00
  0.00000000E+00  0.00000000E+00  0.00000000E+00
  0.00000000E+00  0.00000000E+00  0.00000000E+00
  0.00000000E+00  0.00000000E+00  0.00000000E+00
  0.00000000E+00  0.00000000E+00  0.00000000E+00
  0.00000000E+00  0.00000000E+00  0.00000000E+00
  0.00000000E+00  0.00000000E+00  0.00000000E+00
  0.00000000E+00  0.00000000E+00  0.00000000E+00
  0.00000000E+00  0.00000000E+00  0.00000000E+00
  0.00000000E+00  0.00000000E+00  0.00000000E+00
  0.00000000E+00  0.00000000E+00  0.00000000E+00
  0.00000000E+00  0.00000000E+00  0.00000000E+00
  0.00000000E+00  0.00000000E+00  0.00000000E+00
  0.00000000E+00  0.00000000E+00  0.00000000E+00
  0.00000000E+00  0.00000000E+00  0.00000000E+00
  0.00000000E+00  0.00000000E+00  0.00000000E+00
  0.00000000E+00  0.00000000E+00  0.00000000E+00
  0.00000000E+00  0.00000000E+00  0.00000000E+00
  0.00000000E+00  0.00000000E+00  0.00000000E+00
  0.00000000E+00  0.00000000E+00  0.00000000E+00
  0.00000000E+00  0.00000000E+00  0.00000000E+00
  0.00000000E+00  0.00000000E+00  0.00000000E+00
  0.00000000E+00  0.00000000E+00  0.00000000E+00
  0.00000000E+00  0.00000000E+00  0.00000000E+00
  0.00000000E+00  0.00000000E+00  0.00000000E+00
  0.00000000E+00  0.00000000E+00  0.00000000E+00
  0.00000000E+00  0.00000000E+00  0.00000000E+00
  0.00000000E+00  0.00000000E+00  0.00000000E+00
  0.00000000E+00  0.00000000E+00  0.00000000E+00
  0.00000000E+00  0.00000000E+00  0.00000000E+00
  0.00000000E+00  0.00000000E+00  0.00000000E+00
  0.00000000E+00  0.00000000E+00  0.00000000E+00
  0.00000000E+00  0.00000000E+00  0.00000000E+00
  0.00000000E+00  0.00000000E+00  0.00000000E+00
  0.00000000E+00  0.00000000E+00  0.00000000E+00
  0.00000000E+00  0.00000000E+00  0.00000000E+00
  0.00000000E+00  0.00000000E+00  0.00000000E+00
  0.00000000E+00  0.00000000E+00  0.00000000E+00
  0.00000000E+00  0.00000000E+00  0.00000000E+00
  0.00000000E+00  0.00000000E+00  0.00000000E+00
  0.00000000E+00  0.00000000E+00  0.00000000E+00
  0.00000000E+00  0.00000000E+00  0.00000000E+00
  0.00000000E+00  0.00000000E+00  0.00000000E+00
  0.00000000E+00  0.00000000E+00  0.00000000E+00
  0.00000000E+00  0.00000000E+00  0.00000000E+00
  0.00000000E+00  0.00000000E+00  0.00000000E+00
  0.00000000E+00  0.00000000E+00  0.00000000E+00
  0.00000000E+00  0.00000000E+00  0.00000000E+00
  0.00000000E+00  0.00000000E+00  0.00000000E+00
  0.00000000E+00  0.00000000E+00  0.00000000E+00
  0.00000000E+00  0.00000000E+00  0.00000000E+00
  0.00000000E+00  0.00000000E+00  0.00000000E+00
  0.00000000E+00  0.00000000E+00  0.00000000E+00
  0.00000000E+00  0.00000000E+00  0.00000000E+00
  0.00000000E+00  0.00000000E+00  0.00000000E+00
  0.00000000E+00  0.00000000E+00  0.00000000E+00
  0.00000000E+00  0.00000000E+00  0.00000000E+00
  0.00000000E+00  0.00000000E+00  0.00000000E+00
  0.00000000E+00  0.00000000E+00  0.00000000E+00
  0.00000000E+00  0.00000000E+00  0.00000000E+00
  0.00000000E+00  0.00000000E+00  0.00000000E+00
  0.00000000E+00  0.00000000E+00  0.00000000E+00
  0.00000000E+00  0.00000000E+00  0.00000000E+00
  0.00000000E+00  0.00000000E+00  0.00000000E+00
  0.00000000E+00  0.00000000E+00  0.00000000E+00
  0.00000000E+00  0.00000000E+00  0.00000000E+00
  0.00000000E+00  0.00000000E+00  0.00000000E+00
  0.00000000E+00  0.00000000E+00  0.00000000E+00
  0.00000000E+00  0.00000000E+00  0.00000000E+00
  0.00000000E+00  0.00000000E+00  0.00000000E+00
  0.00000000E+00  0.00000000E+00  0.00000000E+00
  0.00000000E+00  0.00000000E+00  0.00000000E+00
  0.00000000E+00  0.00000000E+00  0.00000000E+00
  0.00000000E+00  0.00000000E+00  0.00000000E+00
  0.00000000E+00  0.00000000E+00  0.00000000E+00
  0.00000000E+00  0.00000000E+00  0.00000000E+00
  0.00000000E+00  0.00000000E+00  0.00000000E+00
  0.00000000E+00  0.00000000E+00  0.00000000E+00
  0.00000000E+00  0.00000000E+00  0.00000000E+00
  0.00000000E+00  0.00000000E+00  0.00000000E+00
  0.00000000E+00  0.00000000E+00  0.00000000E+00
  0.00000000E+00  0.00000000E+00  0.00000000E+00
  0.00000000E+00  0.00000000E+00  0.00000000E+00
  0.00000000E+00  0.00000000E+00  0.00000000E+00
  0.00000000E+00  0.00000000E+00  0.00000000E+00
  0.00000000E+00  0.00000000E+00  0.00000000E+00
  0.00000000E+00  0.00000000E+00  0.00000000E+00
  0.00000000E+00  0.00000000E+00  0.00000000E+00
  0.00000000E+00  0.00000000E+00  0.00000000E+00
  0.00000000E+00  0.00000000E+00  0.00000000E+00
  0.00000000E+00  0.00000000E+00  0.00000000E+00
  0.00000000E+00  0.00000000E+00  0.00000000E+00
  0.00000000E+00  0.00000000E+00  0.00000000E+00
  0.00000000E+00  0.00000000E+00  0.00000000E+00
  0.00000000E+00  0.00000000E+00  0.00000000E+00
  0.00000000E+00  0.00000000E+00  0.00000000E+00
  0.00000000E+00  0.00000000E+00  0.00000000E+00
  0.00000000E+00  0.00000000E+00  0.00000000E+00
  0.00000000E+00  0.00000000E+00  0.00000000E+00
  0.00000000E+00  0.00000000E+00  0.00000000E+00
  0.00000000E+00  0.00000000E+00  0.00000000E+00
  0.00000000E+00  0.00000000E+00  0.00000000E+00
  0.00000000E+00  0.00000000E+00  0.00000000E+00
  0.00000000E+00  0.00000000E+00  0.00000000E+00
  0.00000000E+00  0.00000000E+00  0.00000000E+00
  0.00000000E+00  0.00000000E+00  0.00000000E+00
  0.00000000E+00  0.00000000E+00  0.00000000E+00
  0.00000000E+00  0.00000000E+00  0.00000000E+00
