In36 Ga18 Cu30 Ag24 Se108               
   1.0000000000000000     
    16.2485789542463799    0.0002236544470300   -7.3053361750142445
    -3.2860825389442345   15.9107863944823968   -7.3427890961752791
     0.0004890866942055    0.0014109640364493   21.7267385370169563
   In   Ga   Cu   Ag   Se
    36    18    30    24   108
Direct
  0.1678852409920495  0.5078503299065034  0.0023954427926753
  0.5016020433162893  0.5053293308295750  0.0031709919574823
  0.8342288178022912  0.4981529148298875  0.0025597261390899
  0.4947442209326951  0.8355762398106279  0.9999533052432241
  0.1701794021211640  0.1687434178103331  0.0025532148078824
  0.5044039285871662  0.1624371366571893  0.0025267825643382
  0.1584032393249757  0.4967754952446199  0.3354915385810315
  0.5097405671575075  0.4992211724101736  0.3383709449264529
  0.8368013100006380  0.4996675170145082  0.3346521487446026
  0.1676002052025893  0.8357697778555320  0.3323259031609282
  0.5018171598417425  0.8386919910186279  0.3351797049097058
  0.5054096389467304  0.1640017277538348  0.3325789033700062
  0.4895560134219465  0.4927669975151829  0.6592263384337329
  0.8362466066329191  0.4952579311206904  0.6632521349845391
  0.8333889033856110  0.8319372254317230  0.6615716878689781
  0.4969309589978081  0.1640627466285025  0.6672933999932908
  0.8369532758522524  0.1665306591739437  0.6641685565440270
  0.2523554751843449  0.4128671412327662  0.1710104667460897
  0.5895565260490443  0.4155222481695802  0.1698436469264877
  0.5876701936865132  0.7534339639016423  0.1727328105757877
  0.9175637318775713  0.7498061079343969  0.1673500106648405
  0.2481268677411492  0.0823858250311318  0.1690996930226660
  0.9170782703596956  0.4119448755183441  0.4970770456945530
  0.2451814111246691  0.7532756658231108  0.5001600058277305
  0.9213694893237303  0.7516440852589383  0.5004497214017505
  0.2491475557615104  0.0858231238370379  0.5012819154494395
  0.5844149834466421  0.0822199416733582  0.4967010239158469
  0.9153366238923297  0.0815744587975189  0.4958740489797151
  0.2461881695602557  0.4192315333769017  0.8289168670505802
  0.5786722969889624  0.4143905419497642  0.8309327175576371
  0.9198281812952942  0.4171460001098879  0.8339444263107083
  0.2475449563845942  0.7471937946354572  0.8296495532847032
  0.5804842066559104  0.7508545934761628  0.8315408351079228
  0.9226226893773983  0.7515765881655767  0.8386395847654384
  0.2473323829367970  0.0793162988870364  0.8273551881132235
  0.9178650080348021  0.0890452283876613  0.8341655907886505
  0.1703133367306293  0.8298131025354394  0.0036382018348320
  0.8384796605621219  0.8370517887153852  0.0074134394005014
  0.8326903695118446  0.1695694248747586  0.0035850147741314
  0.8351771528297718  0.8316852303789304  0.3358709506142361
  0.1590779829915334  0.1657622653579480  0.3334102197924764
  0.8324547885847338  0.1691433226711041  0.3309752758342768
  0.1631396271014509  0.4954414869358956  0.6634283935721683
  0.1664487914689872  0.8341897318519216  0.6635455563994697
  0.4962685062071159  0.8402758632032743  0.6635374526595186
  0.1626085267815967  0.1648651233073153  0.6616806726542421
  0.9136673115860177  0.4143141931467937  0.1706541095438823
  0.2500913062828474  0.7587036646722751  0.1657504956425200
  0.5876434183729060  0.0848515376312022  0.1721448562039001
  0.9177976661330334  0.0882393239090717  0.1689935205259587
  0.2365172870905141  0.4100302554799882  0.4978231345213260
  0.5901663108886623  0.4135737295302775  0.4987359221797405
  0.5857706341215021  0.7564324085615155  0.5002655841147359
  0.5803778409475697  0.0790120572501749  0.8309328914310896
  0.0078466192820343  0.6746000238980088  0.0047931018059018
  0.3317895457536011  0.6724016921306841  0.9995637226909651
  0.9985312213109765  0.3264920959892095  0.3308539028043853
  0.6711513399355340  0.3291852278057092  0.3346281003266611
  0.9960548970688663  0.6693669353838985  0.3348831362877931
  0.6726365899956122  0.6713139609585497  0.3403608204970965
  0.3262592307629575  0.9959430115675758  0.3297814469023876
  0.6705816828156870  0.0039722124317407  0.3330028768226896
  0.0056786221844405  0.3318222585228412  0.6643982299282172
  0.3233007271509507  0.3353293332849319  0.6634156207050665
  0.0034515236052499  0.0038583117948008  0.6631312661175244
  0.3283027559469787  0.9965428660746767  0.6629552762987458
  0.7560163118350758  0.5867938166075035  0.1765022431280627
  0.0866571461382364  0.9203755931592141  0.1664769891795572
  0.4190029587928734  0.9162587599646059  0.1693497395999231
  0.0729453808532909  0.2494613650241746  0.1678982104957001
  0.4268375956512358  0.2499503051579381  0.1727157714774421
  0.7558994746930594  0.2470176944089388  0.1734763816832512
  0.0836721336986130  0.5800477474969838  0.4993742063742417
  0.7447215665092983  0.5802540441114701  0.4928503474409993
  0.0857109301147574  0.9163080604620220  0.5033628709159856
  0.4141666960891257  0.9176240730807095  0.5014212353798229
  0.7516031735047548  0.9150155922711889  0.4940193524925007
  0.0803250651855976  0.2518765341179119  0.4995152330038621
  0.7542896444302301  0.2485685517328378  0.4931612270802006
  0.0881160312985685  0.5841781001610116  0.8363510236544869
  0.4090598498236346  0.5759903310546406  0.8300937007393401
  0.4136316320830744  0.9143145749128436  0.8223476989114005
  0.0833643724820377  0.2483720921323709  0.8255159146925237
  0.7478691240631932  0.2466360670061860  0.8375418989268724
  0.9990917373201995  0.3285822910187477  0.0016303190548470
  0.3255804197284107  0.3330718601112821  0.9983398401435082
  0.6731123318218124  0.3318446179369872  0.0013863885961527
  0.6572552736166131  0.6689067327173461  0.9972609736188289
  0.0019011416152637  0.9982172744107345  0.0075068286101825
  0.3404211560583761  0.9965987364414488  0.0059829507447233
  0.6699255470511218  0.0054378271413782  0.0011537767711971
  0.3319243220059036  0.3318198469662690  0.3354726033290731
  0.3372835283179043  0.6751863220268106  0.3367884382031789
  0.9955440359363479  0.9994366856547074  0.3329867201341941
  0.6655546084111492  0.3256834178130532  0.6647845889008295
  0.9992546653589187  0.6622910235798898  0.6636993359673724
  0.3290331052471984  0.6654343265147062  0.6661110133272246
  0.6646572295083146  0.6630993443691793  0.6589834196190552
  0.6675951258930084  0.9986131417114166  0.6645617324057440
  0.0806973654656957  0.5828661810004192  0.1720579577001828
  0.4131174620048057  0.5883577773704829  0.1673815425457192
  0.7511827458234208  0.9196891861438488  0.1701390131226290
  0.4217177913680530  0.5872870762022799  0.5032222767589403
  0.4118098174465672  0.2468031250212022  0.4943438946145093
  0.7551389412617695  0.5937841186255213  0.8381528819907658
  0.0780580951731196  0.9172119895563071  0.8297371491814118
  0.7510805385093562  0.9227976815260135  0.8375902278936849
  0.4093546524217615  0.2455897587895137  0.8254538215931859
  0.1271589835176101  0.4583135218355849  0.0853500262955365
  0.4584958401469734  0.4574238298843341  0.0855258746359695
  0.7967128071071414  0.4656253826279624  0.0977111437262792
  0.1246579353318182  0.7971440677855171  0.0859224656451829
  0.4508383713789215  0.7922596099455887  0.0862686573524556
  0.7905978746783120  0.7932078821115169  0.0803818662968112
  0.1214985250063449  0.1356301518008465  0.0908690209005343
  0.4664012760706626  0.1286481501766303  0.0964022773911779
  0.7988878139688822  0.1330558595976754  0.0899944040528595
  0.1135269535955601  0.4513640366422322  0.4200907453951359
  0.4678212486574793  0.4546498730213742  0.4234618886122021
  0.7830297188860840  0.4562522833283822  0.4154752925010570
  0.1126468124539741  0.7932737496409743  0.4137104596360786
  0.4644961889393997  0.8030085012130996  0.4278582687810086
  0.7889552343791237  0.7930180142818912  0.4141190018254761
  0.1203391139220784  0.1335593008417675  0.4183664395601099
  0.4482812192115588  0.1135464256755938  0.4067862190056601
  0.7866348738769204  0.1268019013075516  0.4085556811447830
  0.1142490650652661  0.4617947442123338  0.7436006111641049
  0.4430001357024977  0.4543516120535500  0.7469911842938046
  0.7899502592168375  0.4592675589364745  0.7497331083820953
  0.1246114856694049  0.7937222047136245  0.7419459333217517
  0.4550005394589931  0.7975675561395903  0.7428078850192108
  0.7943680301988749  0.7935633352107558  0.7513547170605932
  0.1182245705043812  0.1277871203777750  0.7426341197033963
  0.4541078684370561  0.1114872006737428  0.7481778124019129
  0.7879426822858164  0.1346539937080422  0.7526255066180241
  0.2936502570655861  0.6409044870001566  0.0842325676762172
  0.6384427474282859  0.6257416881160722  0.0935409779445280
  0.9627690901608759  0.6268850938342325  0.0777257412573604
  0.2935011209176324  0.9485874625981907  0.0870488055501895
  0.6229266916775060  0.9658567220845953  0.0872320726210631
  0.9580936002051601  0.9600235465442850  0.0943256458275599
  0.3067816607675127  0.2886347891194205  0.0935007529606224
  0.6393371695088348  0.2859090655855994  0.0909814705988836
  0.9542257105054119  0.2916466098319788  0.0894330966198709
  0.2874117104406082  0.6241753941633448  0.4151663301096704
  0.6329501843812508  0.6353035778350815  0.4223392646535231
  0.9711049048330480  0.6243644141010591  0.4185513029956383
  0.3016547529626123  0.9603782046505955  0.4186614497077272
  0.6383361920837345  0.9605344239603752  0.4144541717774786
  0.9614222273667679  0.9471540840894761  0.4176960928753317
  0.2754556398751973  0.2898118911893732  0.4153601746543885
  0.6360390337966990  0.2944594268348553  0.4196181998587178
  0.9601958454705013  0.2830089388050467  0.4100576363305848
  0.2884877153388814  0.6110387194696330  0.7476997550944446
  0.6193921658948938  0.6209515305877389  0.7440095507922280
  0.9683052063015651  0.6219028993527758  0.7556888054621282
  0.2924720249172950  0.9499848526861854  0.7407757185643575
  0.6182262151273363  0.9584384297869164  0.7489047448457740
  0.9592181325625546  0.9638989336709542  0.7411838257792525
  0.2827731805254672  0.2870619919204032  0.7376680729659810
  0.6315234202302094  0.2856174611526683  0.7554035996330271
  0.9701386191240573  0.2931682706264880  0.7471148811425934
  0.1950971743083585  0.3650340597035537  0.2467345629354725
  0.5490598250027219  0.3647901023990983  0.2538356652929892
  0.8776676897854330  0.3652372102056916  0.2494346830194587
  0.2115319374239562  0.7114099556391764  0.2428595599957788
  0.5507792003850938  0.7070018573120578  0.2595980933626620
  0.8744134185035861  0.7071570435896675  0.2556554153366690
  0.2041258113803934  0.0413247409925717  0.2572320211827019
  0.5463984222418361  0.0311844352332358  0.2458553678587094
  0.8742271445623473  0.0528953341631535  0.2496744625038332
  0.2013699486594049  0.3705044622721161  0.5821729767923003
  0.5442516618381177  0.3724784293201964  0.5755955394936763
  0.8791722148339005  0.3606475703453782  0.5813889249935258
  0.1961957198466138  0.7066870030720764  0.5810665774491142
  0.5426544195785965  0.7237116290988652  0.5833854170748651
  0.8671789745493115  0.6962714661490708  0.5740341339774204
  0.2050459466667363  0.0378280343468660  0.5860618789267065
  0.5338430450740503  0.0351244922216623  0.5763762575519991
  0.8754559638537387  0.0301018758509670  0.5798425885614762
  0.1985857444629744  0.3718038074510233  0.9100505258235074
  0.5395457477481713  0.3722294770752583  0.9178801690258354
  0.8674843284319351  0.3647998493673299  0.9116300088577347
  0.2070855932891220  0.7059367979006552  0.9199029826121290
  0.5247298638113094  0.6996255246892105  0.9068888030373827
  0.8857893761182112  0.7180872747004727  0.9324481394816360
  0.2121239986253656  0.0393129328031776  0.9180952076024198
  0.5356145135841004  0.0317809304383943  0.9053017083391239
  0.8786567362688160  0.0525696731354159  0.9257792858601306
  0.0280495303297528  0.5421145729102221  0.2529656756405316
  0.3789943758907484  0.5415451728637706  0.2555064142368124
  0.7109950277577255  0.5537413268518065  0.2560550455811281
  0.0440694104756787  0.8801250568717833  0.2440987741035983
  0.3702449918099404  0.8821993607243641  0.2477886714044928
  0.7180160214989328  0.8824290825369161  0.2626990882490645
  0.0403727346095053  0.2083602336988690  0.2502110933004005
  0.3795107943307059  0.2093753194108174  0.2470297834289781
  0.7096706344506245  0.2098787060212572  0.2519635367515320
  0.0492827629215569  0.5386176431438798  0.5804169231830159
  0.3574877189356229  0.5295191194912690  0.5714065909682517
  0.7083156247675149  0.5360063982387686  0.5718740713924930
  0.0491957987431633  0.8845449538807841  0.5887531109941619
  0.3756191691324560  0.8837083427313601  0.5838948403619995
  0.7072513484373886  0.8744759731498277  0.5714329057427463
  0.0458747947629021  0.2127587680071770  0.5828877582600356
  0.3724249264373967  0.2197522117332866  0.5904640782009238
  0.7136522030692731  0.2098707189449698  0.5730739406306995
  0.0416048189247391  0.5555676255151454  0.9181197591594952
  0.3732172398891151  0.5537458832787792  0.9192396110834977
  0.7067633358865422  0.5417341329266350  0.9167075128117617
  0.0549317277412555  0.8763614722768409  0.9255114136136129
  0.3753452277540958  0.8769828258627967  0.9046442891318520
  0.7171510185989476  0.8723551633137419  0.9240793034772139
  0.0497711682338604  0.2140197144113856  0.9106180194013689
  0.3759433873756564  0.2068480244411433  0.9177400470716535
  0.7082015884481692  0.1979427373984137  0.9120896557514868

  0.00000000E+00  0.00000000E+00  0.00000000E+00
  0.00000000E+00  0.00000000E+00  0.00000000E+00
  0.00000000E+00  0.00000000E+00  0.00000000E+00
  0.00000000E+00  0.00000000E+00  0.00000000E+00
  0.00000000E+00  0.00000000E+00  0.00000000E+00
  0.00000000E+00  0.00000000E+00  0.00000000E+00
  0.00000000E+00  0.00000000E+00  0.00000000E+00
  0.00000000E+00  0.00000000E+00  0.00000000E+00
  0.00000000E+00  0.00000000E+00  0.00000000E+00
  0.00000000E+00  0.00000000E+00  0.00000000E+00
  0.00000000E+00  0.00000000E+00  0.00000000E+00
  0.00000000E+00  0.00000000E+00  0.00000000E+00
  0.00000000E+00  0.00000000E+00  0.00000000E+00
  0.00000000E+00  0.00000000E+00  0.00000000E+00
  0.00000000E+00  0.00000000E+00  0.00000000E+00
  0.00000000E+00  0.00000000E+00  0.00000000E+00
  0.00000000E+00  0.00000000E+00  0.00000000E+00
  0.00000000E+00  0.00000000E+00  0.00000000E+00
  0.00000000E+00  0.00000000E+00  0.00000000E+00
  0.00000000E+00  0.00000000E+00  0.00000000E+00
  0.00000000E+00  0.00000000E+00  0.00000000E+00
  0.00000000E+00  0.00000000E+00  0.00000000E+00
  0.00000000E+00  0.00000000E+00  0.00000000E+00
  0.00000000E+00  0.00000000E+00  0.00000000E+00
  0.00000000E+00  0.00000000E+00  0.00000000E+00
  0.00000000E+00  0.00000000E+00  0.00000000E+00
  0.00000000E+00  0.00000000E+00  0.00000000E+00
  0.00000000E+00  0.00000000E+00  0.00000000E+00
  0.00000000E+00  0.00000000E+00  0.00000000E+00
  0.00000000E+00  0.00000000E+00  0.00000000E+00
  0.00000000E+00  0.00000000E+00  0.00000000E+00
  0.00000000E+00  0.00000000E+00  0.00000000E+00
  0.00000000E+00  0.00000000E+00  0.00000000E+00
  0.00000000E+00  0.00000000E+00  0.00000000E+00
  0.00000000E+00  0.00000000E+00  0.00000000E+00
  0.00000000E+00  0.00000000E+00  0.00000000E+00
  0.00000000E+00  0.00000000E+00  0.00000000E+00
  0.00000000E+00  0.00000000E+00  0.00000000E+00
  0.00000000E+00  0.00000000E+00  0.00000000E+00
  0.00000000E+00  0.00000000E+00  0.00000000E+00
  0.00000000E+00  0.00000000E+00  0.00000000E+00
  0.00000000E+00  0.00000000E+00  0.00000000E+00
  0.00000000E+00  0.00000000E+00  0.00000000E+00
  0.00000000E+00  0.00000000E+00  0.00000000E+00
  0.00000000E+00  0.00000000E+00  0.00000000E+00
  0.00000000E+00  0.00000000E+00  0.00000000E+00
  0.00000000E+00  0.00000000E+00  0.00000000E+00
  0.00000000E+00  0.00000000E+00  0.00000000E+00
  0.00000000E+00  0.00000000E+00  0.00000000E+00
  0.00000000E+00  0.00000000E+00  0.00000000E+00
  0.00000000E+00  0.00000000E+00  0.00000000E+00
  0.00000000E+00  0.00000000E+00  0.00000000E+00
  0.00000000E+00  0.00000000E+00  0.00000000E+00
  0.00000000E+00  0.00000000E+00  0.00000000E+00
  0.00000000E+00  0.00000000E+00  0.00000000E+00
  0.00000000E+00  0.00000000E+00  0.00000000E+00
  0.00000000E+00  0.00000000E+00  0.00000000E+00
  0.00000000E+00  0.00000000E+00  0.00000000E+00
  0.00000000E+00  0.00000000E+00  0.00000000E+00
  0.00000000E+00  0.00000000E+00  0.00000000E+00
  0.00000000E+00  0.00000000E+00  0.00000000E+00
  0.00000000E+00  0.00000000E+00  0.00000000E+00
  0.00000000E+00  0.00000000E+00  0.00000000E+00
  0.00000000E+00  0.00000000E+00  0.00000000E+00
  0.00000000E+00  0.00000000E+00  0.00000000E+00
  0.00000000E+00  0.00000000E+00  0.00000000E+00
  0.00000000E+00  0.00000000E+00  0.00000000E+00
  0.00000000E+00  0.00000000E+00  0.00000000E+00
  0.00000000E+00  0.00000000E+00  0.00000000E+00
  0.00000000E+00  0.00000000E+00  0.00000000E+00
  0.00000000E+00  0.00000000E+00  0.00000000E+00
  0.00000000E+00  0.00000000E+00  0.00000000E+00
  0.00000000E+00  0.00000000E+00  0.00000000E+00
  0.00000000E+00  0.00000000E+00  0.00000000E+00
  0.00000000E+00  0.00000000E+00  0.00000000E+00
  0.00000000E+00  0.00000000E+00  0.00000000E+00
  0.00000000E+00  0.00000000E+00  0.00000000E+00
  0.00000000E+00  0.00000000E+00  0.00000000E+00
  0.00000000E+00  0.00000000E+00  0.00000000E+00
  0.00000000E+00  0.00000000E+00  0.00000000E+00
  0.00000000E+00  0.00000000E+00  0.00000000E+00
  0.00000000E+00  0.00000000E+00  0.00000000E+00
  0.00000000E+00  0.00000000E+00  0.00000000E+00
  0.00000000E+00  0.00000000E+00  0.00000000E+00
  0.00000000E+00  0.00000000E+00  0.00000000E+00
  0.00000000E+00  0.00000000E+00  0.00000000E+00
  0.00000000E+00  0.00000000E+00  0.00000000E+00
  0.00000000E+00  0.00000000E+00  0.00000000E+00
  0.00000000E+00  0.00000000E+00  0.00000000E+00
  0.00000000E+00  0.00000000E+00  0.00000000E+00
  0.00000000E+00  0.00000000E+00  0.00000000E+00
  0.00000000E+00  0.00000000E+00  0.00000000E+00
  0.00000000E+00  0.00000000E+00  0.00000000E+00
  0.00000000E+00  0.00000000E+00  0.00000000E+00
  0.00000000E+00  0.00000000E+00  0.00000000E+00
  0.00000000E+00  0.00000000E+00  0.00000000E+00
  0.00000000E+00  0.00000000E+00  0.00000000E+00
  0.00000000E+00  0.00000000E+00  0.00000000E+00
  0.00000000E+00  0.00000000E+00  0.00000000E+00
  0.00000000E+00  0.00000000E+00  0.00000000E+00
  0.00000000E+00  0.00000000E+00  0.00000000E+00
  0.00000000E+00  0.00000000E+00  0.00000000E+00
  0.00000000E+00  0.00000000E+00  0.00000000E+00
  0.00000000E+00  0.00000000E+00  0.00000000E+00
  0.00000000E+00  0.00000000E+00  0.00000000E+00
  0.00000000E+00  0.00000000E+00  0.00000000E+00
  0.00000000E+00  0.00000000E+00  0.00000000E+00
  0.00000000E+00  0.00000000E+00  0.00000000E+00
  0.00000000E+00  0.00000000E+00  0.00000000E+00
  0.00000000E+00  0.00000000E+00  0.00000000E+00
  0.00000000E+00  0.00000000E+00  0.00000000E+00
  0.00000000E+00  0.00000000E+00  0.00000000E+00
  0.00000000E+00  0.00000000E+00  0.00000000E+00
  0.00000000E+00  0.00000000E+00  0.00000000E+00
  0.00000000E+00  0.00000000E+00  0.00000000E+00
  0.00000000E+00  0.00000000E+00  0.00000000E+00
  0.00000000E+00  0.00000000E+00  0.00000000E+00
  0.00000000E+00  0.00000000E+00  0.00000000E+00
  0.00000000E+00  0.00000000E+00  0.00000000E+00
  0.00000000E+00  0.00000000E+00  0.00000000E+00
  0.00000000E+00  0.00000000E+00  0.00000000E+00
  0.00000000E+00  0.00000000E+00  0.00000000E+00
  0.00000000E+00  0.00000000E+00  0.00000000E+00
  0.00000000E+00  0.00000000E+00  0.00000000E+00
  0.00000000E+00  0.00000000E+00  0.00000000E+00
  0.00000000E+00  0.00000000E+00  0.00000000E+00
  0.00000000E+00  0.00000000E+00  0.00000000E+00
  0.00000000E+00  0.00000000E+00  0.00000000E+00
  0.00000000E+00  0.00000000E+00  0.00000000E+00
  0.00000000E+00  0.00000000E+00  0.00000000E+00
  0.00000000E+00  0.00000000E+00  0.00000000E+00
  0.00000000E+00  0.00000000E+00  0.00000000E+00
  0.00000000E+00  0.00000000E+00  0.00000000E+00
  0.00000000E+00  0.00000000E+00  0.00000000E+00
  0.00000000E+00  0.00000000E+00  0.00000000E+00
  0.00000000E+00  0.00000000E+00  0.00000000E+00
  0.00000000E+00  0.00000000E+00  0.00000000E+00
  0.00000000E+00  0.00000000E+00  0.00000000E+00
  0.00000000E+00  0.00000000E+00  0.00000000E+00
  0.00000000E+00  0.00000000E+00  0.00000000E+00
  0.00000000E+00  0.00000000E+00  0.00000000E+00
  0.00000000E+00  0.00000000E+00  0.00000000E+00
  0.00000000E+00  0.00000000E+00  0.00000000E+00
  0.00000000E+00  0.00000000E+00  0.00000000E+00
  0.00000000E+00  0.00000000E+00  0.00000000E+00
  0.00000000E+00  0.00000000E+00  0.00000000E+00
  0.00000000E+00  0.00000000E+00  0.00000000E+00
  0.00000000E+00  0.00000000E+00  0.00000000E+00
  0.00000000E+00  0.00000000E+00  0.00000000E+00
  0.00000000E+00  0.00000000E+00  0.00000000E+00
  0.00000000E+00  0.00000000E+00  0.00000000E+00
  0.00000000E+00  0.00000000E+00  0.00000000E+00
  0.00000000E+00  0.00000000E+00  0.00000000E+00
  0.00000000E+00  0.00000000E+00  0.00000000E+00
  0.00000000E+00  0.00000000E+00  0.00000000E+00
  0.00000000E+00  0.00000000E+00  0.00000000E+00
  0.00000000E+00  0.00000000E+00  0.00000000E+00
  0.00000000E+00  0.00000000E+00  0.00000000E+00
  0.00000000E+00  0.00000000E+00  0.00000000E+00
  0.00000000E+00  0.00000000E+00  0.00000000E+00
  0.00000000E+00  0.00000000E+00  0.00000000E+00
  0.00000000E+00  0.00000000E+00  0.00000000E+00
  0.00000000E+00  0.00000000E+00  0.00000000E+00
  0.00000000E+00  0.00000000E+00  0.00000000E+00
  0.00000000E+00  0.00000000E+00  0.00000000E+00
  0.00000000E+00  0.00000000E+00  0.00000000E+00
  0.00000000E+00  0.00000000E+00  0.00000000E+00
  0.00000000E+00  0.00000000E+00  0.00000000E+00
  0.00000000E+00  0.00000000E+00  0.00000000E+00
  0.00000000E+00  0.00000000E+00  0.00000000E+00
  0.00000000E+00  0.00000000E+00  0.00000000E+00
  0.00000000E+00  0.00000000E+00  0.00000000E+00
  0.00000000E+00  0.00000000E+00  0.00000000E+00
  0.00000000E+00  0.00000000E+00  0.00000000E+00
  0.00000000E+00  0.00000000E+00  0.00000000E+00
  0.00000000E+00  0.00000000E+00  0.00000000E+00
  0.00000000E+00  0.00000000E+00  0.00000000E+00
  0.00000000E+00  0.00000000E+00  0.00000000E+00
  0.00000000E+00  0.00000000E+00  0.00000000E+00
  0.00000000E+00  0.00000000E+00  0.00000000E+00
  0.00000000E+00  0.00000000E+00  0.00000000E+00
  0.00000000E+00  0.00000000E+00  0.00000000E+00
  0.00000000E+00  0.00000000E+00  0.00000000E+00
  0.00000000E+00  0.00000000E+00  0.00000000E+00
  0.00000000E+00  0.00000000E+00  0.00000000E+00
  0.00000000E+00  0.00000000E+00  0.00000000E+00
  0.00000000E+00  0.00000000E+00  0.00000000E+00
  0.00000000E+00  0.00000000E+00  0.00000000E+00
  0.00000000E+00  0.00000000E+00  0.00000000E+00
  0.00000000E+00  0.00000000E+00  0.00000000E+00
  0.00000000E+00  0.00000000E+00  0.00000000E+00
  0.00000000E+00  0.00000000E+00  0.00000000E+00
  0.00000000E+00  0.00000000E+00  0.00000000E+00
  0.00000000E+00  0.00000000E+00  0.00000000E+00
  0.00000000E+00  0.00000000E+00  0.00000000E+00
  0.00000000E+00  0.00000000E+00  0.00000000E+00
  0.00000000E+00  0.00000000E+00  0.00000000E+00
  0.00000000E+00  0.00000000E+00  0.00000000E+00
  0.00000000E+00  0.00000000E+00  0.00000000E+00
  0.00000000E+00  0.00000000E+00  0.00000000E+00
  0.00000000E+00  0.00000000E+00  0.00000000E+00
  0.00000000E+00  0.00000000E+00  0.00000000E+00
  0.00000000E+00  0.00000000E+00  0.00000000E+00
  0.00000000E+00  0.00000000E+00  0.00000000E+00
  0.00000000E+00  0.00000000E+00  0.00000000E+00
  0.00000000E+00  0.00000000E+00  0.00000000E+00
  0.00000000E+00  0.00000000E+00  0.00000000E+00
  0.00000000E+00  0.00000000E+00  0.00000000E+00
  0.00000000E+00  0.00000000E+00  0.00000000E+00
  0.00000000E+00  0.00000000E+00  0.00000000E+00
  0.00000000E+00  0.00000000E+00  0.00000000E+00
  0.00000000E+00  0.00000000E+00  0.00000000E+00
  0.00000000E+00  0.00000000E+00  0.00000000E+00
  0.00000000E+00  0.00000000E+00  0.00000000E+00
  0.00000000E+00  0.00000000E+00  0.00000000E+00
  0.00000000E+00  0.00000000E+00  0.00000000E+00
