Ga54 Cu24 Ag30 Se108                    
   1.0000000000000000     
    16.0448802181296948    0.0116861412893591   -7.2228101877173359
    -3.3309885035205058   15.6024589648139003   -7.3767178366506627
    -0.1509018230925575    0.0348521875974390   21.0585593060968321
   Ga   Cu   Ag   Se
    54    24    30   108
Direct
  0.1728227416151569  0.4989223593648902  0.9987722041365856
  0.4953981521000586  0.5016918817117713  0.9984824489417647
  0.8292378166189991  0.5010206480643546  0.9990501819322475
  0.1660874778313044  0.8302347083426938  0.9993227347752054
  0.4983375915783625  0.8251252116431260  0.9970450152832200
  0.8299181440595049  0.8305877391597960  0.9956316660901194
  0.1687081888355593  0.1664763286235882  0.9986515326006540
  0.5011624533044454  0.1727147490037027  0.0020434865816128
  0.8318004371834036  0.1651039075249301  0.0003399248940283
  0.1736309239137270  0.5024916188376736  0.3347422965489741
  0.4977805965198954  0.5048293954975946  0.3351143461261330
  0.8308021853223551  0.4982582141363352  0.3346113471311369
  0.1683787503699889  0.8364162588188790  0.3326019764350292
  0.4990930743837936  0.8337653701788241  0.3321800470525034
  0.8333023089214890  0.8407575511392693  0.3360447325908567
  0.1669949597036080  0.1605952191135955  0.3331371544979120
  0.4982170488427329  0.1625673771266420  0.3313614357534433
  0.8331369558048962  0.1608347792001936  0.3317075557139688
  0.1700847145710824  0.4921401186872529  0.6674125322042528
  0.4999978592397483  0.4971362755164677  0.6672009658234686
  0.8308393755640324  0.4961038829973248  0.6693034580873842
  0.1713080541741832  0.8385882125812643  0.6659257866383754
  0.5037952094650180  0.8375293103511936  0.6688469189585291
  0.8283314952239067  0.8410774730642387  0.6672576820795797
  0.1706451622990741  0.1673544677477707  0.6660768139066562
  0.5002738690237578  0.1684284371196156  0.6687251555734619
  0.8275895115644900  0.1664896173069721  0.6666137139253223
  0.2571539355174366  0.4193378063074675  0.1658131073234301
  0.5781989338837121  0.4166076746897645  0.1680705247419851
  0.9151036988903769  0.4149362109488379  0.1676134438561050
  0.2552374841004124  0.7481560142998873  0.1675285747907580
  0.5803821940303493  0.7477150456400210  0.1640312736359562
  0.9114739511396266  0.7510639751602284  0.1652198742996305
  0.2492293383981377  0.0807097856419432  0.1636151093041676
  0.5828264920325026  0.0838286261202015  0.1657161771786875
  0.9163481570663023  0.0816820019438893  0.1661562622284833
  0.2548104651015137  0.4152922745518524  0.5002058724045213
  0.5807064786570990  0.4170315737780186  0.5019496950694702
  0.9179908038409508  0.4132741928674548  0.5031903563484974
  0.2559969269252775  0.7557658417167801  0.5022257526484282
  0.5805829833867335  0.7534162547307233  0.4997711786848456
  0.9157300250173606  0.7565433779110364  0.5012860773122014
  0.2500811237701512  0.0815663418619295  0.5000028093348234
  0.5836770400215414  0.0821346149601752  0.5012441692182250
  0.9162808294114484  0.0816893917069592  0.5006776523657663
  0.2547808918890624  0.4139858836137051  0.8326535709903879
  0.5808059464530118  0.4178705903123472  0.8331172069542205
  0.9119512903050619  0.4136943632218859  0.8325243252444920
  0.2525766391645519  0.7454140620939356  0.8322545087852902
  0.5855487583815275  0.7458794432086933  0.8326797106286179
  0.9098082168844357  0.7506094217738877  0.8319053393992704
  0.2550451821491464  0.0902168029821837  0.8338093044122488
  0.5840136412365311  0.0860808309223344  0.8323159834933946
  0.9118848710094838  0.0841151600029377  0.8355884769918802
  0.3387880218509949  0.3343204637880106  0.0031584127526330
  0.3315459148001878  0.6625175474663507  0.9971444623067569
  0.6633314826838088  0.6645810353612802  0.9959123359666933
  0.9973267086500570  0.9982563085456917  0.9969361091194031
  0.3342651179853391  0.6664580403801708  0.3325778217692701
  0.0011694335468420  0.9966958038839095  0.3349159131627815
  0.3333752493516187  0.9988560115702612  0.3318916397346499
  0.6652172434507619  0.9980986565449754  0.3362260787826656
  0.9994558255261055  0.3295804267128375  0.6678395268659330
  0.3371217111927791  0.3333158544504329  0.6700826698547147
  0.6675246652755078  0.3342641189645192  0.6723920104919046
  0.3342780158768193  0.0078372167439440  0.6676581077140469
  0.6685139360302301  0.0036623707864010  0.6703660536112039
  0.4135412108953957  0.5806552814308716  0.1633470920150017
  0.4144512706611039  0.2516288355177068  0.1643302336005306
  0.7496610365604113  0.2521541126332281  0.1680778644365830
  0.4154398808049322  0.5880637802147106  0.4983145216568801
  0.0848704172365231  0.9200970571971254  0.4993683375075619
  0.7441147447816903  0.9194846716638807  0.5018050037622004
  0.4201162228459552  0.5807713119549618  0.8344132051093354
  0.7466860091902774  0.5777588153710980  0.8337092642385144
  0.7490262290248850  0.9213026612909232  0.8333566490058857
  0.4162827792377684  0.2489738014001404  0.8319770314784947
  0.7456158552531207  0.2494053484350474  0.8299799754936785
  0.9979695121302825  0.3388158909712544  0.0008866434088475
  0.6628437488939696  0.3323401759438767  0.9984537232189297
  0.9966330527717915  0.6645108261554924  0.9954358067979783
  0.3374625422463993  0.0001602729770624  0.9986649423513398
  0.6702416844363412  0.9985146067886319  0.0006942764117994
  0.0008199556897566  0.3328767577034881  0.3329991862243347
  0.3398228736750752  0.3294743036334040  0.3328003730883040
  0.6643644291572315  0.3285194489632133  0.3287604432787390
  0.0039093102473515  0.6750940601748994  0.3359887773340589
  0.6669560034881457  0.6793760998446530  0.3361059350200293
  0.0020424909736505  0.6646472070672402  0.6661149739109007
  0.3332593740402885  0.6589563704972079  0.6653235080004904
  0.6642955993008286  0.6678149649378682  0.6671158062334754
  0.9994033266074638  0.0015805884317359  0.6630496086078850
  0.0845124595927871  0.5839621486636446  0.1693122021510050
  0.7433208980025157  0.5824980947041283  0.1685033327588883
  0.0817817619949679  0.9183624244643198  0.1657602859060177
  0.4219760153094754  0.9171632625521013  0.1677711084641800
  0.7499945383250122  0.9162530956756640  0.1680111762326675
  0.0893223344886636  0.2484788135088962  0.1654425624240972
  0.0812130578961714  0.5859348289118884  0.4979788119243480
  0.7533270822139571  0.5880331555427318  0.5038475057499312
  0.4167288480117435  0.9176892962516732  0.5007668363492925
  0.0874212416404987  0.2483652356873449  0.5030026114418078
  0.4201125579251581  0.2465370536201306  0.5014520297022642
  0.7506837875514165  0.2476283265704993  0.5000979507563770
  0.0838234139659235  0.5796729940958016  0.8293793801400113
  0.0810988562276549  0.9140141247930487  0.8338091468552307
  0.4183911312434958  0.9184031571639650  0.8308658562703357
  0.0825090339581607  0.2556663928840024  0.8353001504705233
  0.1368672073725179  0.4595425645871600  0.0828409304162960
  0.4576977857421056  0.4600957959670211  0.0838467209182525
  0.7981054433188817  0.4594822902463491  0.0847574719608915
  0.1337396857298288  0.7882178112495168  0.0840722260355520
  0.4564987755209913  0.7814051430446867  0.0764200854664807
  0.7884401732754611  0.7843600516334561  0.0752728989594900
  0.1260095143198185  0.1144588844781396  0.0746752986226369
  0.4646282333138032  0.1343877927489316  0.0882950315208433
  0.7971068566240049  0.1334319648841316  0.0903572128106873
  0.1371926200969469  0.4592381895048376  0.4175113468108620
  0.4635083586324029  0.4681717812287687  0.4233526185903003
  0.7995146000998332  0.4565676197689754  0.4201552805427582
  0.1363691836707801  0.8034210772722687  0.4230158749852961
  0.4580837973289249  0.7864429156855195  0.4109318025035478
  0.7983189066716321  0.8073395090449367  0.4250412149563374
  0.1258042828987627  0.1150016507681784  0.4124664201940078
  0.4593145744825406  0.1142373137257309  0.4109621916299133
  0.7920640695070418  0.1145695190734486  0.4111324658723632
  0.1272947915353768  0.4444377950371958  0.7448264248281475
  0.4562867764926750  0.4572032780127699  0.7493873957338337
  0.7888399552450238  0.4572932283808626  0.7525106916198609
  0.1373534977597899  0.7923947506456628  0.7492215508771025
  0.4683758010806756  0.7887981722917559  0.7488793096436694
  0.7931597753220672  0.8015289143579523  0.7530956342897923
  0.1343347297948156  0.1290976286826719  0.7504137492076595
  0.4587210466812692  0.1272707591996891  0.7511381982952514
  0.7895955035265558  0.1271621202532032  0.7523270833337818
  0.2946316546612806  0.6246089595304340  0.0817548300512385
  0.6175984842322819  0.6260390492167218  0.0764996714009953
  0.9493916647537688  0.6253465680461261  0.0838663481941637
  0.2844681813405927  0.9553011944231287  0.0808105693717138
  0.6131178297282318  0.9546259447674643  0.0805925408845169
  0.9490701789761005  0.9583766106188349  0.0755487762622806
  0.2935666339973793  0.2912423089330574  0.0818426501161866
  0.6244188521968326  0.2936838466589933  0.0913097055535914
  0.9508928368850249  0.2905525603090311  0.0843111976767190
  0.2948658765485490  0.6298328921359300  0.4170112394335348
  0.6185443374854245  0.6287070966465080  0.4184494637557421
  0.9455215260984176  0.6276713009464956  0.4150808635644836
  0.2880032243817894  0.9624248275273217  0.4118209457965776
  0.6240785328233471  0.9576371352567321  0.4171565355916513
  0.9612208495874555  0.9605561655976516  0.4187736019709263
  0.2847018299283093  0.2869257939936389  0.4149966872678732
  0.6137541024465207  0.2907790266006174  0.4164206549788005
  0.9505192309276822  0.2878592346700586  0.4173250078984267
  0.2917105212446813  0.6170113272834499  0.7545879552997619
  0.6238458392910644  0.6184119051694097  0.7539533181233935
  0.9465292051864580  0.6249260366026874  0.7496389662313234
  0.2895771455834719  0.9662158397279370  0.7462752605591945
  0.6271791588262303  0.9614618563829396  0.7512145444520257
  0.9493443047050647  0.9628062343285251  0.7505499395393258
  0.2956921947374482  0.2902775512347162  0.7493072036600168
  0.6233452083177937  0.2933510668722334  0.7519010188997299
  0.9478218951242638  0.2919493823494790  0.7447009084847309
  0.2143096543989884  0.3841880216352607  0.2490991466769330
  0.5309518981215859  0.3780762769518233  0.2479161833433992
  0.8673353338736405  0.3765031055757859  0.2472574199062620
  0.2161901244912983  0.7148632428750190  0.2550349772997080
  0.5301414201624226  0.7083403230455687  0.2417339595170276
  0.8700076692170597  0.7185765188584270  0.2505337743000595
  0.2172310667090258  0.0458582915789592  0.2531929246555933
  0.5524632733144017  0.0480217584719256  0.2559309121585400
  0.8843447190009783  0.0435382349596267  0.2544614304159865
  0.2203595622307617  0.3775562987479617  0.5876172800782129
  0.5495226906740243  0.3784156169010728  0.5902581007955661
  0.8824198106066774  0.3789617652883024  0.5913655975267389
  0.2120532274349287  0.7174553535999451  0.5834045900608800
  0.5341808028503010  0.7129570855571146  0.5790337134037316
  0.8768693130788492  0.7246162746365883  0.5879135767830590
  0.2084773019616080  0.0408934991632819  0.5823823197647116
  0.5485137338383268  0.0484119956005244  0.5902022586088123
  0.8633958328877753  0.0437747840784581  0.5786396455583400
  0.2208861745170552  0.3792992462573181  0.9216363984287526
  0.5320414938796674  0.3774597771293884  0.9118180776995928
  0.8632378371769178  0.3756092338416295  0.9114445526540536
  0.2139884217188950  0.7116547520620315  0.9194075972769440
  0.5417733272091070  0.7042506797682790  0.9141292761351920
  0.8631342049753883  0.7054449225202433  0.9085378646752105
  0.2100723904378370  0.0495416713208954  0.9130489892642686
  0.5443647498126722  0.0542702979466085  0.9188804566920084
  0.8737525471824554  0.0406473066695909  0.9186680031810894
  0.0419857812565994  0.5337545275371269  0.2537465527019265
  0.3763236028496522  0.5463449269182306  0.2499343358987858
  0.7034505058275258  0.5352494509122465  0.2550028202998362
  0.0373619629688093  0.8720926536299487  0.2520766899319824
  0.3736394022734686  0.8748777173761937  0.2541542064825464
  0.7018737359049396  0.8736823390608137  0.2543637053542369
  0.0442392653264818  0.1974216585664692  0.2489827193733802
  0.3774834329789343  0.1979871263240156  0.2407378945998246
  0.7126412541854990  0.1987942329092505  0.2438933162625005
  0.0460654246464713  0.5292004119056344  0.5833652767765471
  0.3813387527786958  0.5336098225832728  0.5763552222791404
  0.7086653302149060  0.5321988955797181  0.5840815118504636
  0.0459689229874556  0.8713539750198080  0.5773408049124171
  0.3767043758685702  0.8804845158152688  0.5931051653521280
  0.7032638917315239  0.8797918310023931  0.5833792288055832
  0.0391408959815109  0.2052492939962676  0.5892161344223723
  0.3724292764747332  0.2061096624562992  0.5887505798307302
  0.7026850663574109  0.2089271267414219  0.5887009687491727
  0.0416719250522846  0.5285749164794780  0.9148513516426462
  0.3732758884783962  0.5425581309617016  0.9144039934139414
  0.7047897722294678  0.5418000230930389  0.9168510838401858
  0.0370093916383638  0.8698773293947610  0.9211181635783632
  0.3770491454363025  0.8635966819460776  0.9135801749733972
  0.7087500207182273  0.8678321160269888  0.9090574838254284
  0.0397672479660400  0.2011660652506393  0.9177039958852404
  0.3786683156348616  0.2145469047170749  0.9183938173922996
  0.7112443229925844  0.2036449038329451  0.9118575152100448

  0.00000000E+00  0.00000000E+00  0.00000000E+00
  0.00000000E+00  0.00000000E+00  0.00000000E+00
  0.00000000E+00  0.00000000E+00  0.00000000E+00
  0.00000000E+00  0.00000000E+00  0.00000000E+00
  0.00000000E+00  0.00000000E+00  0.00000000E+00
  0.00000000E+00  0.00000000E+00  0.00000000E+00
  0.00000000E+00  0.00000000E+00  0.00000000E+00
  0.00000000E+00  0.00000000E+00  0.00000000E+00
  0.00000000E+00  0.00000000E+00  0.00000000E+00
  0.00000000E+00  0.00000000E+00  0.00000000E+00
  0.00000000E+00  0.00000000E+00  0.00000000E+00
  0.00000000E+00  0.00000000E+00  0.00000000E+00
  0.00000000E+00  0.00000000E+00  0.00000000E+00
  0.00000000E+00  0.00000000E+00  0.00000000E+00
  0.00000000E+00  0.00000000E+00  0.00000000E+00
  0.00000000E+00  0.00000000E+00  0.00000000E+00
  0.00000000E+00  0.00000000E+00  0.00000000E+00
  0.00000000E+00  0.00000000E+00  0.00000000E+00
  0.00000000E+00  0.00000000E+00  0.00000000E+00
  0.00000000E+00  0.00000000E+00  0.00000000E+00
  0.00000000E+00  0.00000000E+00  0.00000000E+00
  0.00000000E+00  0.00000000E+00  0.00000000E+00
  0.00000000E+00  0.00000000E+00  0.00000000E+00
  0.00000000E+00  0.00000000E+00  0.00000000E+00
  0.00000000E+00  0.00000000E+00  0.00000000E+00
  0.00000000E+00  0.00000000E+00  0.00000000E+00
  0.00000000E+00  0.00000000E+00  0.00000000E+00
  0.00000000E+00  0.00000000E+00  0.00000000E+00
  0.00000000E+00  0.00000000E+00  0.00000000E+00
  0.00000000E+00  0.00000000E+00  0.00000000E+00
  0.00000000E+00  0.00000000E+00  0.00000000E+00
  0.00000000E+00  0.00000000E+00  0.00000000E+00
  0.00000000E+00  0.00000000E+00  0.00000000E+00
  0.00000000E+00  0.00000000E+00  0.00000000E+00
  0.00000000E+00  0.00000000E+00  0.00000000E+00
  0.00000000E+00  0.00000000E+00  0.00000000E+00
  0.00000000E+00  0.00000000E+00  0.00000000E+00
  0.00000000E+00  0.00000000E+00  0.00000000E+00
  0.00000000E+00  0.00000000E+00  0.00000000E+00
  0.00000000E+00  0.00000000E+00  0.00000000E+00
  0.00000000E+00  0.00000000E+00  0.00000000E+00
  0.00000000E+00  0.00000000E+00  0.00000000E+00
  0.00000000E+00  0.00000000E+00  0.00000000E+00
  0.00000000E+00  0.00000000E+00  0.00000000E+00
  0.00000000E+00  0.00000000E+00  0.00000000E+00
  0.00000000E+00  0.00000000E+00  0.00000000E+00
  0.00000000E+00  0.00000000E+00  0.00000000E+00
  0.00000000E+00  0.00000000E+00  0.00000000E+00
  0.00000000E+00  0.00000000E+00  0.00000000E+00
  0.00000000E+00  0.00000000E+00  0.00000000E+00
  0.00000000E+00  0.00000000E+00  0.00000000E+00
  0.00000000E+00  0.00000000E+00  0.00000000E+00
  0.00000000E+00  0.00000000E+00  0.00000000E+00
  0.00000000E+00  0.00000000E+00  0.00000000E+00
  0.00000000E+00  0.00000000E+00  0.00000000E+00
  0.00000000E+00  0.00000000E+00  0.00000000E+00
  0.00000000E+00  0.00000000E+00  0.00000000E+00
  0.00000000E+00  0.00000000E+00  0.00000000E+00
  0.00000000E+00  0.00000000E+00  0.00000000E+00
  0.00000000E+00  0.00000000E+00  0.00000000E+00
  0.00000000E+00  0.00000000E+00  0.00000000E+00
  0.00000000E+00  0.00000000E+00  0.00000000E+00
  0.00000000E+00  0.00000000E+00  0.00000000E+00
  0.00000000E+00  0.00000000E+00  0.00000000E+00
  0.00000000E+00  0.00000000E+00  0.00000000E+00
  0.00000000E+00  0.00000000E+00  0.00000000E+00
  0.00000000E+00  0.00000000E+00  0.00000000E+00
  0.00000000E+00  0.00000000E+00  0.00000000E+00
  0.00000000E+00  0.00000000E+00  0.00000000E+00
  0.00000000E+00  0.00000000E+00  0.00000000E+00
  0.00000000E+00  0.00000000E+00  0.00000000E+00
  0.00000000E+00  0.00000000E+00  0.00000000E+00
  0.00000000E+00  0.00000000E+00  0.00000000E+00
  0.00000000E+00  0.00000000E+00  0.00000000E+00
  0.00000000E+00  0.00000000E+00  0.00000000E+00
  0.00000000E+00  0.00000000E+00  0.00000000E+00
  0.00000000E+00  0.00000000E+00  0.00000000E+00
  0.00000000E+00  0.00000000E+00  0.00000000E+00
  0.00000000E+00  0.00000000E+00  0.00000000E+00
  0.00000000E+00  0.00000000E+00  0.00000000E+00
  0.00000000E+00  0.00000000E+00  0.00000000E+00
  0.00000000E+00  0.00000000E+00  0.00000000E+00
  0.00000000E+00  0.00000000E+00  0.00000000E+00
  0.00000000E+00  0.00000000E+00  0.00000000E+00
  0.00000000E+00  0.00000000E+00  0.00000000E+00
  0.00000000E+00  0.00000000E+00  0.00000000E+00
  0.00000000E+00  0.00000000E+00  0.00000000E+00
  0.00000000E+00  0.00000000E+00  0.00000000E+00
  0.00000000E+00  0.00000000E+00  0.00000000E+00
  0.00000000E+00  0.00000000E+00  0.00000000E+00
  0.00000000E+00  0.00000000E+00  0.00000000E+00
  0.00000000E+00  0.00000000E+00  0.00000000E+00
  0.00000000E+00  0.00000000E+00  0.00000000E+00
  0.00000000E+00  0.00000000E+00  0.00000000E+00
  0.00000000E+00  0.00000000E+00  0.00000000E+00
  0.00000000E+00  0.00000000E+00  0.00000000E+00
  0.00000000E+00  0.00000000E+00  0.00000000E+00
  0.00000000E+00  0.00000000E+00  0.00000000E+00
  0.00000000E+00  0.00000000E+00  0.00000000E+00
  0.00000000E+00  0.00000000E+00  0.00000000E+00
  0.00000000E+00  0.00000000E+00  0.00000000E+00
  0.00000000E+00  0.00000000E+00  0.00000000E+00
  0.00000000E+00  0.00000000E+00  0.00000000E+00
  0.00000000E+00  0.00000000E+00  0.00000000E+00
  0.00000000E+00  0.00000000E+00  0.00000000E+00
  0.00000000E+00  0.00000000E+00  0.00000000E+00
  0.00000000E+00  0.00000000E+00  0.00000000E+00
  0.00000000E+00  0.00000000E+00  0.00000000E+00
  0.00000000E+00  0.00000000E+00  0.00000000E+00
  0.00000000E+00  0.00000000E+00  0.00000000E+00
  0.00000000E+00  0.00000000E+00  0.00000000E+00
  0.00000000E+00  0.00000000E+00  0.00000000E+00
  0.00000000E+00  0.00000000E+00  0.00000000E+00
  0.00000000E+00  0.00000000E+00  0.00000000E+00
  0.00000000E+00  0.00000000E+00  0.00000000E+00
  0.00000000E+00  0.00000000E+00  0.00000000E+00
  0.00000000E+00  0.00000000E+00  0.00000000E+00
  0.00000000E+00  0.00000000E+00  0.00000000E+00
  0.00000000E+00  0.00000000E+00  0.00000000E+00
  0.00000000E+00  0.00000000E+00  0.00000000E+00
  0.00000000E+00  0.00000000E+00  0.00000000E+00
  0.00000000E+00  0.00000000E+00  0.00000000E+00
  0.00000000E+00  0.00000000E+00  0.00000000E+00
  0.00000000E+00  0.00000000E+00  0.00000000E+00
  0.00000000E+00  0.00000000E+00  0.00000000E+00
  0.00000000E+00  0.00000000E+00  0.00000000E+00
  0.00000000E+00  0.00000000E+00  0.00000000E+00
  0.00000000E+00  0.00000000E+00  0.00000000E+00
  0.00000000E+00  0.00000000E+00  0.00000000E+00
  0.00000000E+00  0.00000000E+00  0.00000000E+00
  0.00000000E+00  0.00000000E+00  0.00000000E+00
  0.00000000E+00  0.00000000E+00  0.00000000E+00
  0.00000000E+00  0.00000000E+00  0.00000000E+00
  0.00000000E+00  0.00000000E+00  0.00000000E+00
  0.00000000E+00  0.00000000E+00  0.00000000E+00
  0.00000000E+00  0.00000000E+00  0.00000000E+00
  0.00000000E+00  0.00000000E+00  0.00000000E+00
  0.00000000E+00  0.00000000E+00  0.00000000E+00
  0.00000000E+00  0.00000000E+00  0.00000000E+00
  0.00000000E+00  0.00000000E+00  0.00000000E+00
  0.00000000E+00  0.00000000E+00  0.00000000E+00
  0.00000000E+00  0.00000000E+00  0.00000000E+00
  0.00000000E+00  0.00000000E+00  0.00000000E+00
  0.00000000E+00  0.00000000E+00  0.00000000E+00
  0.00000000E+00  0.00000000E+00  0.00000000E+00
  0.00000000E+00  0.00000000E+00  0.00000000E+00
  0.00000000E+00  0.00000000E+00  0.00000000E+00
  0.00000000E+00  0.00000000E+00  0.00000000E+00
  0.00000000E+00  0.00000000E+00  0.00000000E+00
  0.00000000E+00  0.00000000E+00  0.00000000E+00
  0.00000000E+00  0.00000000E+00  0.00000000E+00
  0.00000000E+00  0.00000000E+00  0.00000000E+00
  0.00000000E+00  0.00000000E+00  0.00000000E+00
  0.00000000E+00  0.00000000E+00  0.00000000E+00
  0.00000000E+00  0.00000000E+00  0.00000000E+00
  0.00000000E+00  0.00000000E+00  0.00000000E+00
  0.00000000E+00  0.00000000E+00  0.00000000E+00
  0.00000000E+00  0.00000000E+00  0.00000000E+00
  0.00000000E+00  0.00000000E+00  0.00000000E+00
  0.00000000E+00  0.00000000E+00  0.00000000E+00
  0.00000000E+00  0.00000000E+00  0.00000000E+00
  0.00000000E+00  0.00000000E+00  0.00000000E+00
  0.00000000E+00  0.00000000E+00  0.00000000E+00
  0.00000000E+00  0.00000000E+00  0.00000000E+00
  0.00000000E+00  0.00000000E+00  0.00000000E+00
  0.00000000E+00  0.00000000E+00  0.00000000E+00
  0.00000000E+00  0.00000000E+00  0.00000000E+00
  0.00000000E+00  0.00000000E+00  0.00000000E+00
  0.00000000E+00  0.00000000E+00  0.00000000E+00
  0.00000000E+00  0.00000000E+00  0.00000000E+00
  0.00000000E+00  0.00000000E+00  0.00000000E+00
  0.00000000E+00  0.00000000E+00  0.00000000E+00
  0.00000000E+00  0.00000000E+00  0.00000000E+00
  0.00000000E+00  0.00000000E+00  0.00000000E+00
  0.00000000E+00  0.00000000E+00  0.00000000E+00
  0.00000000E+00  0.00000000E+00  0.00000000E+00
  0.00000000E+00  0.00000000E+00  0.00000000E+00
  0.00000000E+00  0.00000000E+00  0.00000000E+00
  0.00000000E+00  0.00000000E+00  0.00000000E+00
  0.00000000E+00  0.00000000E+00  0.00000000E+00
  0.00000000E+00  0.00000000E+00  0.00000000E+00
  0.00000000E+00  0.00000000E+00  0.00000000E+00
  0.00000000E+00  0.00000000E+00  0.00000000E+00
  0.00000000E+00  0.00000000E+00  0.00000000E+00
  0.00000000E+00  0.00000000E+00  0.00000000E+00
  0.00000000E+00  0.00000000E+00  0.00000000E+00
  0.00000000E+00  0.00000000E+00  0.00000000E+00
  0.00000000E+00  0.00000000E+00  0.00000000E+00
  0.00000000E+00  0.00000000E+00  0.00000000E+00
  0.00000000E+00  0.00000000E+00  0.00000000E+00
  0.00000000E+00  0.00000000E+00  0.00000000E+00
  0.00000000E+00  0.00000000E+00  0.00000000E+00
  0.00000000E+00  0.00000000E+00  0.00000000E+00
  0.00000000E+00  0.00000000E+00  0.00000000E+00
  0.00000000E+00  0.00000000E+00  0.00000000E+00
  0.00000000E+00  0.00000000E+00  0.00000000E+00
  0.00000000E+00  0.00000000E+00  0.00000000E+00
  0.00000000E+00  0.00000000E+00  0.00000000E+00
  0.00000000E+00  0.00000000E+00  0.00000000E+00
  0.00000000E+00  0.00000000E+00  0.00000000E+00
  0.00000000E+00  0.00000000E+00  0.00000000E+00
  0.00000000E+00  0.00000000E+00  0.00000000E+00
  0.00000000E+00  0.00000000E+00  0.00000000E+00
  0.00000000E+00  0.00000000E+00  0.00000000E+00
  0.00000000E+00  0.00000000E+00  0.00000000E+00
  0.00000000E+00  0.00000000E+00  0.00000000E+00
  0.00000000E+00  0.00000000E+00  0.00000000E+00
  0.00000000E+00  0.00000000E+00  0.00000000E+00
  0.00000000E+00  0.00000000E+00  0.00000000E+00
  0.00000000E+00  0.00000000E+00  0.00000000E+00
  0.00000000E+00  0.00000000E+00  0.00000000E+00
  0.00000000E+00  0.00000000E+00  0.00000000E+00
  0.00000000E+00  0.00000000E+00  0.00000000E+00
  0.00000000E+00  0.00000000E+00  0.00000000E+00
  0.00000000E+00  0.00000000E+00  0.00000000E+00
  0.00000000E+00  0.00000000E+00  0.00000000E+00
