In12 Ga42 Cu24 Ag30 Se108               
   1.0000000000000000     
    16.1130019238142737    0.0067580975405590   -7.3495967420396742
    -3.3831610263322003   15.7345546228486910   -7.3341313451894861
     0.0078046269017186   -0.0019937026988871   21.3110735166310867
   In   Ga   Cu   Ag   Se
    12    42    24    30   108
Direct
  0.1663832842013804  0.8360260008127511  0.0000908466020206
  0.4948535960459708  0.8370086714903380  0.0004831532704657
  0.5020853765213786  0.5009255458233000  0.3343529629665412
  0.5057791093476922  0.5029267630327965  0.6682012050159329
  0.8385330240369200  0.8313108655359542  0.6674630352449782
  0.8383843293042545  0.1669119975382003  0.6675958284128214
  0.2451797659734609  0.4189027597872865  0.1636888324287966
  0.2506739191912857  0.7499479488235323  0.1680409051098337
  0.9182193470405693  0.0822358335601052  0.1668451418177739
  0.2438164478816773  0.4206775931105042  0.4959972870784810
  0.5800724996041353  0.0819704377963859  0.4966198073918306
  0.9204498002473116  0.4217250379153370  0.8363017529011927
  0.1676348479191674  0.5032267399551955  0.0011092926448981
  0.4953329223676093  0.5001427944085890  0.0013109548297763
  0.8395016995788041  0.4999805721187798  0.0028052475099400
  0.8423322738760106  0.8303649996369842  0.0005725373133956
  0.1686243253372339  0.1608475879191786  0.9992382714650603
  0.4965438884287252  0.1637029349585148  0.0009136261186029
  0.8339466879703963  0.1689096255147149  0.0008440364465656
  0.1626187113682036  0.5078693225574895  0.3343142932466350
  0.8318461839046023  0.4965085900656661  0.3277365241868893
  0.1628837360620636  0.8326467292409134  0.3313165682257235
  0.4995226448262500  0.8346549024973910  0.3306996004813811
  0.8366255409037890  0.8315071766350428  0.3305996137256955
  0.1681940541203701  0.1574086966360682  0.3323533633687816
  0.4984180364940229  0.1639466447985285  0.3284913670273468
  0.8305158688390719  0.1666816904014610  0.3341942105709705
  0.1624372834575851  0.5056166607265382  0.6676030155971588
  0.8294371565722756  0.5050619691342106  0.6645840814889610
  0.1654370368848035  0.8321185781616123  0.6672391810248968
  0.4961149112508920  0.8324913854764517  0.6688381386450644
  0.1686770541456895  0.1624747415310921  0.6676290440476365
  0.4973556026377750  0.1659686332262638  0.6679549504064752
  0.5825090891037306  0.4119943936271468  0.1649279506716823
  0.9173441869317429  0.4180341305496214  0.1653707180978188
  0.5765597576958328  0.7502046217346887  0.1675486624131537
  0.9239505480396630  0.7511415757556961  0.1676457162710321
  0.2527439183468587  0.0786303953583953  0.1668866191542691
  0.5842602926984668  0.0846453738643689  0.1682774578977373
  0.5836509178460076  0.4170752974526764  0.4987101389478781
  0.9150514488050305  0.4215173834025876  0.4981113750101400
  0.2455515057975575  0.7483980442106883  0.5002204708082658
  0.5814780256593082  0.7527697239170266  0.5018853818015288
  0.9241660285505517  0.7431474066982773  0.4959830445207487
  0.2501534166743653  0.0777680942902350  0.4984668112827748
  0.9153655423669775  0.0779763913375078  0.4934334201848074
  0.2476909888762080  0.4188716718679188  0.8355639270072643
  0.5855991455275600  0.4167208297122045  0.8365189389641827
  0.2467287852576661  0.7542660621320820  0.8324270355215333
  0.5871525164472970  0.7566572870136667  0.8371684986657115
  0.9166029786804657  0.7504200865935147  0.8317217290084429
  0.2541942023803543  0.0781562701569882  0.8356872641037327
  0.5775209542231750  0.0789203104428751  0.8326658778544314
  0.9240324848459736  0.0855687509837679  0.8435690290361535
  0.0027600598036699  0.3360376105579661  0.0035984856535762
  0.3333129998420219  0.3350500941870962  0.9999844958229502
  0.0028263900877832  0.6698297197138174  0.0059254198905165
  0.3364510356699668  0.6670242133909525  0.0032531810204972
  0.0036402317869815  0.9966179498263585  0.9996981139141852
  0.3296716857068489  0.9978249254833571  0.9990963255666259
  0.6698567631264041  0.3287963861159966  0.3295862012622877
  0.0007698257750874  0.6635798424614023  0.3308640932947426
  0.0033391113771444  0.9969215595992651  0.3329017013899289
  0.3267567171432901  0.9968730274449769  0.3279218084093856
  0.6662573832644441  0.9984342600303862  0.3277085438509602
  0.6666597025203558  0.3349028631975486  0.6693499181043734
  0.0049816659949613  0.6670647541094326  0.6660625533816216
  0.6605004355725512  0.6687133207318894  0.6617677037091809
  0.3336099319315835  0.9991520919252466  0.6697451500219671
  0.0767663456004968  0.5827404265227969  0.1637914166123764
  0.4156728561404250  0.5773861895355594  0.1581409149763928
  0.0821792829033328  0.9179482567060617  0.1683741599853832
  0.4213323829283979  0.9208314439324070  0.1719927178373197
  0.7460890229530577  0.2511218957033634  0.1676960759777515
  0.0765685026824841  0.5868615745005741  0.4996989488803223
  0.4198641094777855  0.5908086212483923  0.5025430522512764
  0.0882948530235907  0.9164931955180009  0.8345471003278462
  0.4104445115511197  0.9175357768927412  0.8310973326892395
  0.6673136159962283  0.3315260283479020  0.0019371794292553
  0.6714021247599291  0.6656294341693183  0.0015470768220354
  0.6645112274693616  0.0062545554933280  0.9995859926123885
  0.9942553045442111  0.3325546851227585  0.3317765225193483
  0.3347957655372227  0.3329149139611687  0.3358379599781287
  0.3332398157158707  0.6692724047100427  0.3368507851861722
  0.6625352138905498  0.6690061018270583  0.3295113860735910
  0.9971412429937772  0.3318875225674773  0.6558149056147968
  0.3337826272487803  0.3324173313717793  0.6690818817217306
  0.3342702847700423  0.6735930247886159  0.6667240399795276
  0.9977896405870155  0.9989583818026730  0.6666216051992038
  0.6685662955623854  0.0037586720651674  0.6744952166320459
  0.7505286064308763  0.5901903288369539  0.1674643182531028
  0.7552355892392200  0.9146893376862906  0.1731074614740535
  0.0833112535483025  0.2454093370343386  0.1606331938655430
  0.4163096956554000  0.2467098300977781  0.1609324335439553
  0.7550510247597231  0.5794548357987495  0.5008741208034238
  0.0851484929612383  0.9175100253237360  0.4984783707946931
  0.4082474598585790  0.9139413673182446  0.5021059171490521
  0.7438469965403982  0.9026589572512620  0.4888905748686696
  0.0862309505267618  0.2474828356926082  0.4987003512482246
  0.4216785046408731  0.2480276189585098  0.5016040999565377
  0.7451659328146292  0.2499528249073038  0.4943063119331299
  0.0820687478084849  0.5902370492957019  0.8317122558816763
  0.4098492730130587  0.5858904918897778  0.8344296684992472
  0.7519931699079976  0.5875952581621249  0.8338218447338548
  0.7553866790696588  0.9184769006518607  0.8380211774348112
  0.0917708572884308  0.2448541297298377  0.8412729163769441
  0.4151831808907858  0.2470194674916684  0.8361364685955976
  0.7453441999370511  0.2531063266666038  0.8328623791997174
  0.1155179074056321  0.4641429134593906  0.0783353468397934
  0.4578075575906198  0.4536593972412604  0.0826979180894227
  0.7994851372827512  0.4608254038970401  0.0841475513818040
  0.1175972407295021  0.7948825756809725  0.0857716626299450
  0.4527357906421940  0.7927190822137291  0.0891162709773425
  0.8056065452597494  0.7920846139021549  0.0850951087199050
  0.1302708714956253  0.1134456206293706  0.0790522887037426
  0.4584105868959156  0.1122042208032852  0.0775725063421646
  0.7936387891897425  0.1378944175213377  0.0867832916703151
  0.1167046754765479  0.4712031787841084  0.4145831535553413
  0.4613439607737249  0.4663374056133094  0.4272638544185057
  0.7917882971762680  0.4501103243882127  0.4072267769331432
  0.1249656833569333  0.7835424641408437  0.4107006129842645
  0.4664838597740584  0.7967396952276076  0.4177780040469159
  0.8058335705354907  0.7846340897424611  0.4126865936407285
  0.1272750011676536  0.1141499806224004  0.4128363915447224
  0.4497964450224572  0.1170557615661068  0.4020683983556737
  0.7901146186786576  0.1168857829539007  0.4111357483065063
  0.1301409433228500  0.4600652548730650  0.7501372546538576
  0.4668438692152606  0.4599354160653064  0.7571283711546144
  0.7882816897133722  0.4549791373444663  0.7410671383365468
  0.1221267773635049  0.7927712292559050  0.7502051879350446
  0.4650543338512847  0.8024187267282770  0.7600444308923215
  0.7888043413532060  0.7815414525811519  0.7478798664517399
  0.1365781922678266  0.1197661064592239  0.7517985210711373
  0.4579805422472560  0.1180448501298130  0.7470739038489143
  0.8049429466127620  0.1247629781597368  0.7602187226388111
  0.2948431405660017  0.6200099921567528  0.0798702326996477
  0.6120547086042336  0.6271004898960371  0.0831815277415942
  0.9601647734281755  0.6260936503796870  0.0830632225857286
  0.3025405547550761  0.9628405549838064  0.0890923631381852
  0.6270994217354655  0.9647024067615675  0.0908858024399777
  0.9645446150699897  0.9530877555437982  0.0795434464506783
  0.2852716363616352  0.2873800037822321  0.0732863673813284
  0.6203203766746412  0.2848120974190778  0.0859002527787922
  0.9534497448209009  0.2952259009121576  0.0793491138638203
  0.2904866384339684  0.6253296266087887  0.4238698795098372
  0.6270916849305053  0.6350677683915862  0.4249439208555899
  0.9580055073803564  0.6189621274705175  0.4092716355411099
  0.2844946254760004  0.9565265622550569  0.4088807295990122
  0.6220111623226572  0.9541534256381468  0.4043912814006703
  0.9540161814787353  0.9577781914843868  0.4088438401633283
  0.2840539272234466  0.2828480118965899  0.4151987027426642
  0.6150120339057210  0.2942378963252139  0.4063768768691247
  0.9494730080880132  0.2917884233695673  0.4193849703076182
  0.2809494233578249  0.6297796858380735  0.7483454081634875
  0.6278672751068299  0.6404753464901418  0.7515148541352303
  0.9513612488936047  0.6293413424873506  0.7425633649488645
  0.2907229747825468  0.9555239964728557  0.7483661265363963
  0.6161476471235403  0.9553235218513549  0.7530548373746839
  0.9670307098497588  0.9646519713719073  0.7636847358557048
  0.2821384662026318  0.2922007400146782  0.7529091948396598
  0.6158247585131065  0.2938188249614200  0.7448440927970310
  0.9686955278394365  0.2945176218095256  0.7533122038798297
  0.2053277057185809  0.3855480527742330  0.2567912532190419
  0.5509683194163841  0.3723232755711479  0.2506288035886612
  0.8657199960141142  0.3740876453823745  0.2402320911913591
  0.1964227092123920  0.7057265853964125  0.2489952840789726
  0.5286073132709888  0.7068470499088022  0.2429172406698257
  0.8862990184283888  0.7146971574108392  0.2532521661070675
  0.2066434122854446  0.0356056370966158  0.2462229158614022
  0.5445496980821503  0.0418934765651713  0.2500990749931091
  0.8831795889573755  0.0477274718075620  0.2622258090640059
  0.2064322927660172  0.3863004331422104  0.5897118701687347
  0.5526370316582145  0.3739533806472224  0.5831482741348566
  0.8706121667423119  0.3872596892127902  0.5799363989787167
  0.1969351114324525  0.7082587085829033  0.5783445092451771
  0.5391120415536363  0.7120781734345485  0.5841466094877603
  0.8881809035770019  0.7058846789465463  0.5811124178390159
  0.2182901258094745  0.0449650603699254  0.5890399124689907
  0.5382865806845913  0.0461363634161387  0.5879323923527195
  0.8725131948761558  0.0369136077015781  0.5722528860525813
  0.2145347902422401  0.3827655785563735  0.9234029060629254
  0.5407368772264931  0.3833126904489959  0.9192309630943996
  0.8814703961018822  0.3775779708837064  0.9251773060608528
  0.2213194014203523  0.7114527666650829  0.9195788764724995
  0.5438456560000517  0.7121142242617893  0.9139856848365540
  0.8880425940871604  0.7119999221899960  0.9209898061593833
  0.2092398754782252  0.0373427900263081  0.9165300801062557
  0.5286532242349864  0.0414630853679441  0.9111059348514914
  0.8853460232469317  0.0485745957077128  0.9279750731055501
  0.0393654704337223  0.5435919073549513  0.2470031567071302
  0.3778225788913971  0.5455582902351566  0.2433279058510465
  0.7056409440717317  0.5326157822688060  0.2469197647059502
  0.0427955642607714  0.8774184109317176  0.2499509399058439
  0.3796213217120226  0.8830299390713847  0.2543564546366284
  0.7044003706234108  0.8679401707800523  0.2540707619989320
  0.0525263475390432  0.2065233236514104  0.2565805105356560
  0.3734286534734608  0.2003776181008021  0.2472912024692562
  0.7089110507861065  0.2072968872089405  0.2491300404585104
  0.0398098939821594  0.5444369478775570  0.5816642521464814
  0.3785027458050223  0.5459402719519701  0.5790500468518616
  0.7024384473246812  0.5434520847268942  0.5862434748497805
  0.0428150216631238  0.8668624447542754  0.5824540505389280
  0.3681291960474056  0.8709766958459184  0.5900377273446580
  0.7042382296374328  0.8715278617373201  0.5821741625556598
  0.0424961291703099  0.1938115169723602  0.5807622166129249
  0.3730245175167397  0.1987236395595389  0.5823670102571654
  0.7063703993474633  0.2160525304529983  0.5888064784426490
  0.0491379506690706  0.5539892216755717  0.9276807858735410
  0.3711328518234538  0.5408554175920770  0.9223423504921300
  0.7134756793603358  0.5318578790339998  0.9170447642073896
  0.0357923067037618  0.8773045764117953  0.9093283816911466
  0.3654258972697022  0.8800322955422217  0.9104266545837589
  0.7154525703152146  0.8711472110370337  0.9251356693922403
  0.0441370734704165  0.2090145742476608  0.9288197535016423
  0.3716217665030257  0.2057394849874825  0.9244014483861989
  0.7044787438226336  0.1956224176731141  0.9140210589811488

  0.00000000E+00  0.00000000E+00  0.00000000E+00
  0.00000000E+00  0.00000000E+00  0.00000000E+00
  0.00000000E+00  0.00000000E+00  0.00000000E+00
  0.00000000E+00  0.00000000E+00  0.00000000E+00
  0.00000000E+00  0.00000000E+00  0.00000000E+00
  0.00000000E+00  0.00000000E+00  0.00000000E+00
  0.00000000E+00  0.00000000E+00  0.00000000E+00
  0.00000000E+00  0.00000000E+00  0.00000000E+00
  0.00000000E+00  0.00000000E+00  0.00000000E+00
  0.00000000E+00  0.00000000E+00  0.00000000E+00
  0.00000000E+00  0.00000000E+00  0.00000000E+00
  0.00000000E+00  0.00000000E+00  0.00000000E+00
  0.00000000E+00  0.00000000E+00  0.00000000E+00
  0.00000000E+00  0.00000000E+00  0.00000000E+00
  0.00000000E+00  0.00000000E+00  0.00000000E+00
  0.00000000E+00  0.00000000E+00  0.00000000E+00
  0.00000000E+00  0.00000000E+00  0.00000000E+00
  0.00000000E+00  0.00000000E+00  0.00000000E+00
  0.00000000E+00  0.00000000E+00  0.00000000E+00
  0.00000000E+00  0.00000000E+00  0.00000000E+00
  0.00000000E+00  0.00000000E+00  0.00000000E+00
  0.00000000E+00  0.00000000E+00  0.00000000E+00
  0.00000000E+00  0.00000000E+00  0.00000000E+00
  0.00000000E+00  0.00000000E+00  0.00000000E+00
  0.00000000E+00  0.00000000E+00  0.00000000E+00
  0.00000000E+00  0.00000000E+00  0.00000000E+00
  0.00000000E+00  0.00000000E+00  0.00000000E+00
  0.00000000E+00  0.00000000E+00  0.00000000E+00
  0.00000000E+00  0.00000000E+00  0.00000000E+00
  0.00000000E+00  0.00000000E+00  0.00000000E+00
  0.00000000E+00  0.00000000E+00  0.00000000E+00
  0.00000000E+00  0.00000000E+00  0.00000000E+00
  0.00000000E+00  0.00000000E+00  0.00000000E+00
  0.00000000E+00  0.00000000E+00  0.00000000E+00
  0.00000000E+00  0.00000000E+00  0.00000000E+00
  0.00000000E+00  0.00000000E+00  0.00000000E+00
  0.00000000E+00  0.00000000E+00  0.00000000E+00
  0.00000000E+00  0.00000000E+00  0.00000000E+00
  0.00000000E+00  0.00000000E+00  0.00000000E+00
  0.00000000E+00  0.00000000E+00  0.00000000E+00
  0.00000000E+00  0.00000000E+00  0.00000000E+00
  0.00000000E+00  0.00000000E+00  0.00000000E+00
  0.00000000E+00  0.00000000E+00  0.00000000E+00
  0.00000000E+00  0.00000000E+00  0.00000000E+00
  0.00000000E+00  0.00000000E+00  0.00000000E+00
  0.00000000E+00  0.00000000E+00  0.00000000E+00
  0.00000000E+00  0.00000000E+00  0.00000000E+00
  0.00000000E+00  0.00000000E+00  0.00000000E+00
  0.00000000E+00  0.00000000E+00  0.00000000E+00
  0.00000000E+00  0.00000000E+00  0.00000000E+00
  0.00000000E+00  0.00000000E+00  0.00000000E+00
  0.00000000E+00  0.00000000E+00  0.00000000E+00
  0.00000000E+00  0.00000000E+00  0.00000000E+00
  0.00000000E+00  0.00000000E+00  0.00000000E+00
  0.00000000E+00  0.00000000E+00  0.00000000E+00
  0.00000000E+00  0.00000000E+00  0.00000000E+00
  0.00000000E+00  0.00000000E+00  0.00000000E+00
  0.00000000E+00  0.00000000E+00  0.00000000E+00
  0.00000000E+00  0.00000000E+00  0.00000000E+00
  0.00000000E+00  0.00000000E+00  0.00000000E+00
  0.00000000E+00  0.00000000E+00  0.00000000E+00
  0.00000000E+00  0.00000000E+00  0.00000000E+00
  0.00000000E+00  0.00000000E+00  0.00000000E+00
  0.00000000E+00  0.00000000E+00  0.00000000E+00
  0.00000000E+00  0.00000000E+00  0.00000000E+00
  0.00000000E+00  0.00000000E+00  0.00000000E+00
  0.00000000E+00  0.00000000E+00  0.00000000E+00
  0.00000000E+00  0.00000000E+00  0.00000000E+00
  0.00000000E+00  0.00000000E+00  0.00000000E+00
  0.00000000E+00  0.00000000E+00  0.00000000E+00
  0.00000000E+00  0.00000000E+00  0.00000000E+00
  0.00000000E+00  0.00000000E+00  0.00000000E+00
  0.00000000E+00  0.00000000E+00  0.00000000E+00
  0.00000000E+00  0.00000000E+00  0.00000000E+00
  0.00000000E+00  0.00000000E+00  0.00000000E+00
  0.00000000E+00  0.00000000E+00  0.00000000E+00
  0.00000000E+00  0.00000000E+00  0.00000000E+00
  0.00000000E+00  0.00000000E+00  0.00000000E+00
  0.00000000E+00  0.00000000E+00  0.00000000E+00
  0.00000000E+00  0.00000000E+00  0.00000000E+00
  0.00000000E+00  0.00000000E+00  0.00000000E+00
  0.00000000E+00  0.00000000E+00  0.00000000E+00
  0.00000000E+00  0.00000000E+00  0.00000000E+00
  0.00000000E+00  0.00000000E+00  0.00000000E+00
  0.00000000E+00  0.00000000E+00  0.00000000E+00
  0.00000000E+00  0.00000000E+00  0.00000000E+00
  0.00000000E+00  0.00000000E+00  0.00000000E+00
  0.00000000E+00  0.00000000E+00  0.00000000E+00
  0.00000000E+00  0.00000000E+00  0.00000000E+00
  0.00000000E+00  0.00000000E+00  0.00000000E+00
  0.00000000E+00  0.00000000E+00  0.00000000E+00
  0.00000000E+00  0.00000000E+00  0.00000000E+00
  0.00000000E+00  0.00000000E+00  0.00000000E+00
  0.00000000E+00  0.00000000E+00  0.00000000E+00
  0.00000000E+00  0.00000000E+00  0.00000000E+00
  0.00000000E+00  0.00000000E+00  0.00000000E+00
  0.00000000E+00  0.00000000E+00  0.00000000E+00
  0.00000000E+00  0.00000000E+00  0.00000000E+00
  0.00000000E+00  0.00000000E+00  0.00000000E+00
  0.00000000E+00  0.00000000E+00  0.00000000E+00
  0.00000000E+00  0.00000000E+00  0.00000000E+00
  0.00000000E+00  0.00000000E+00  0.00000000E+00
  0.00000000E+00  0.00000000E+00  0.00000000E+00
  0.00000000E+00  0.00000000E+00  0.00000000E+00
  0.00000000E+00  0.00000000E+00  0.00000000E+00
  0.00000000E+00  0.00000000E+00  0.00000000E+00
  0.00000000E+00  0.00000000E+00  0.00000000E+00
  0.00000000E+00  0.00000000E+00  0.00000000E+00
  0.00000000E+00  0.00000000E+00  0.00000000E+00
  0.00000000E+00  0.00000000E+00  0.00000000E+00
  0.00000000E+00  0.00000000E+00  0.00000000E+00
  0.00000000E+00  0.00000000E+00  0.00000000E+00
  0.00000000E+00  0.00000000E+00  0.00000000E+00
  0.00000000E+00  0.00000000E+00  0.00000000E+00
  0.00000000E+00  0.00000000E+00  0.00000000E+00
  0.00000000E+00  0.00000000E+00  0.00000000E+00
  0.00000000E+00  0.00000000E+00  0.00000000E+00
  0.00000000E+00  0.00000000E+00  0.00000000E+00
  0.00000000E+00  0.00000000E+00  0.00000000E+00
  0.00000000E+00  0.00000000E+00  0.00000000E+00
  0.00000000E+00  0.00000000E+00  0.00000000E+00
  0.00000000E+00  0.00000000E+00  0.00000000E+00
  0.00000000E+00  0.00000000E+00  0.00000000E+00
  0.00000000E+00  0.00000000E+00  0.00000000E+00
  0.00000000E+00  0.00000000E+00  0.00000000E+00
  0.00000000E+00  0.00000000E+00  0.00000000E+00
  0.00000000E+00  0.00000000E+00  0.00000000E+00
  0.00000000E+00  0.00000000E+00  0.00000000E+00
  0.00000000E+00  0.00000000E+00  0.00000000E+00
  0.00000000E+00  0.00000000E+00  0.00000000E+00
  0.00000000E+00  0.00000000E+00  0.00000000E+00
  0.00000000E+00  0.00000000E+00  0.00000000E+00
  0.00000000E+00  0.00000000E+00  0.00000000E+00
  0.00000000E+00  0.00000000E+00  0.00000000E+00
  0.00000000E+00  0.00000000E+00  0.00000000E+00
  0.00000000E+00  0.00000000E+00  0.00000000E+00
  0.00000000E+00  0.00000000E+00  0.00000000E+00
  0.00000000E+00  0.00000000E+00  0.00000000E+00
  0.00000000E+00  0.00000000E+00  0.00000000E+00
  0.00000000E+00  0.00000000E+00  0.00000000E+00
  0.00000000E+00  0.00000000E+00  0.00000000E+00
  0.00000000E+00  0.00000000E+00  0.00000000E+00
  0.00000000E+00  0.00000000E+00  0.00000000E+00
  0.00000000E+00  0.00000000E+00  0.00000000E+00
  0.00000000E+00  0.00000000E+00  0.00000000E+00
  0.00000000E+00  0.00000000E+00  0.00000000E+00
  0.00000000E+00  0.00000000E+00  0.00000000E+00
  0.00000000E+00  0.00000000E+00  0.00000000E+00
  0.00000000E+00  0.00000000E+00  0.00000000E+00
  0.00000000E+00  0.00000000E+00  0.00000000E+00
  0.00000000E+00  0.00000000E+00  0.00000000E+00
  0.00000000E+00  0.00000000E+00  0.00000000E+00
  0.00000000E+00  0.00000000E+00  0.00000000E+00
  0.00000000E+00  0.00000000E+00  0.00000000E+00
  0.00000000E+00  0.00000000E+00  0.00000000E+00
  0.00000000E+00  0.00000000E+00  0.00000000E+00
  0.00000000E+00  0.00000000E+00  0.00000000E+00
  0.00000000E+00  0.00000000E+00  0.00000000E+00
  0.00000000E+00  0.00000000E+00  0.00000000E+00
  0.00000000E+00  0.00000000E+00  0.00000000E+00
  0.00000000E+00  0.00000000E+00  0.00000000E+00
  0.00000000E+00  0.00000000E+00  0.00000000E+00
  0.00000000E+00  0.00000000E+00  0.00000000E+00
  0.00000000E+00  0.00000000E+00  0.00000000E+00
  0.00000000E+00  0.00000000E+00  0.00000000E+00
  0.00000000E+00  0.00000000E+00  0.00000000E+00
  0.00000000E+00  0.00000000E+00  0.00000000E+00
  0.00000000E+00  0.00000000E+00  0.00000000E+00
  0.00000000E+00  0.00000000E+00  0.00000000E+00
  0.00000000E+00  0.00000000E+00  0.00000000E+00
  0.00000000E+00  0.00000000E+00  0.00000000E+00
  0.00000000E+00  0.00000000E+00  0.00000000E+00
  0.00000000E+00  0.00000000E+00  0.00000000E+00
  0.00000000E+00  0.00000000E+00  0.00000000E+00
  0.00000000E+00  0.00000000E+00  0.00000000E+00
  0.00000000E+00  0.00000000E+00  0.00000000E+00
  0.00000000E+00  0.00000000E+00  0.00000000E+00
  0.00000000E+00  0.00000000E+00  0.00000000E+00
  0.00000000E+00  0.00000000E+00  0.00000000E+00
  0.00000000E+00  0.00000000E+00  0.00000000E+00
  0.00000000E+00  0.00000000E+00  0.00000000E+00
  0.00000000E+00  0.00000000E+00  0.00000000E+00
  0.00000000E+00  0.00000000E+00  0.00000000E+00
  0.00000000E+00  0.00000000E+00  0.00000000E+00
  0.00000000E+00  0.00000000E+00  0.00000000E+00
  0.00000000E+00  0.00000000E+00  0.00000000E+00
  0.00000000E+00  0.00000000E+00  0.00000000E+00
  0.00000000E+00  0.00000000E+00  0.00000000E+00
  0.00000000E+00  0.00000000E+00  0.00000000E+00
  0.00000000E+00  0.00000000E+00  0.00000000E+00
  0.00000000E+00  0.00000000E+00  0.00000000E+00
  0.00000000E+00  0.00000000E+00  0.00000000E+00
  0.00000000E+00  0.00000000E+00  0.00000000E+00
  0.00000000E+00  0.00000000E+00  0.00000000E+00
  0.00000000E+00  0.00000000E+00  0.00000000E+00
  0.00000000E+00  0.00000000E+00  0.00000000E+00
  0.00000000E+00  0.00000000E+00  0.00000000E+00
  0.00000000E+00  0.00000000E+00  0.00000000E+00
  0.00000000E+00  0.00000000E+00  0.00000000E+00
  0.00000000E+00  0.00000000E+00  0.00000000E+00
  0.00000000E+00  0.00000000E+00  0.00000000E+00
  0.00000000E+00  0.00000000E+00  0.00000000E+00
  0.00000000E+00  0.00000000E+00  0.00000000E+00
  0.00000000E+00  0.00000000E+00  0.00000000E+00
  0.00000000E+00  0.00000000E+00  0.00000000E+00
  0.00000000E+00  0.00000000E+00  0.00000000E+00
  0.00000000E+00  0.00000000E+00  0.00000000E+00
  0.00000000E+00  0.00000000E+00  0.00000000E+00
  0.00000000E+00  0.00000000E+00  0.00000000E+00
  0.00000000E+00  0.00000000E+00  0.00000000E+00
  0.00000000E+00  0.00000000E+00  0.00000000E+00
  0.00000000E+00  0.00000000E+00  0.00000000E+00
  0.00000000E+00  0.00000000E+00  0.00000000E+00
  0.00000000E+00  0.00000000E+00  0.00000000E+00
  0.00000000E+00  0.00000000E+00  0.00000000E+00
  0.00000000E+00  0.00000000E+00  0.00000000E+00
