In6 Ga48 Cu36 Ag18 Se108                
   1.0000000000000000     
    15.8534353020115919   -0.0033446808946335   -7.1897086870281157
    -3.2717029425839264   15.5176523789395748   -7.2150834111346454
     0.0050109574839535    0.0063827554431099   21.0832664712045208
   In   Ga   Cu   Ag   Se
     6    48    36    18   108
Direct
  0.8319287765281373  0.1587561256497310  0.3277996070532865
  0.5817845012561378  0.7489304831957710  0.1658533219481910
  0.2482624986322861  0.0822433189696596  0.1638423974279064
  0.9205244485287380  0.4194054689003863  0.5030796383090390
  0.9162472066564220  0.7511014521522767  0.8365190355904417
  0.2524714587501506  0.0870314048597720  0.8360064940282328
  0.1667299727810700  0.4953124729868961  0.0013539729669247
  0.4981642077791051  0.4946655136934552  0.9971492566333424
  0.8336309598813756  0.4954390014590118  0.9998988994082438
  0.1705836243729877  0.8344144079391853  0.0006336224513461
  0.4989715436206978  0.8343273209319406  0.9995860380180872
  0.8329882204152881  0.8334556382654128  0.0015253836762597
  0.1646568153593222  0.1715046475569721  0.0012639156021166
  0.4988810142011388  0.1725443917135934  0.0027578180210170
  0.8384083674774061  0.1697971915426706  0.0004936560197066
  0.1671424155544159  0.5010768959809511  0.3310357243326294
  0.4964825461232323  0.5022883150037387  0.3312801156471394
  0.8333477914531002  0.5053837758456581  0.3325239307797929
  0.1668272280061061  0.8300629531050987  0.3303011321449745
  0.4946733375489814  0.8312017379180006  0.3319266863842572
  0.8357731736647409  0.8356702385990857  0.3351619634994165
  0.1716325600800417  0.1659606382943650  0.3339397364986212
  0.4964138601866210  0.1648478654903940  0.3335156233055869
  0.1732356261229597  0.5012344442625718  0.6725767554574063
  0.5001155474226735  0.4973325376245086  0.6683003754258294
  0.8346173133761923  0.4970030429537218  0.6687398727795966
  0.1704124795573136  0.8382584989348487  0.6642342804418533
  0.5014642305655883  0.8419345516690271  0.6692994262299976
  0.8279672314364035  0.8397905469373583  0.6643834480837043
  0.1639754728436529  0.1623343193886342  0.6660466132212477
  0.5010207045955895  0.1633978352022538  0.6676415409443592
  0.8332065147777072  0.1637207235854348  0.6697114345054516
  0.2494581460013023  0.4172848201715240  0.1669940385813149
  0.5777216711003206  0.4192668465710128  0.1644336171713476
  0.9200169001811531  0.4183432665639089  0.1661595341075710
  0.2495633312742100  0.7487997433317588  0.1666257630236956
  0.9167138870949856  0.7481831788769711  0.1648107918824948
  0.5759730266916065  0.0796376166447885  0.1649588912658402
  0.9235075257442773  0.0807779018519739  0.1635570428633883
  0.2538968497469156  0.4141945290917235  0.4993101218698754
  0.5803275315076846  0.4153199552854545  0.4984391112305389
  0.2508366975176060  0.7568011405381867  0.4978886936633415
  0.5789699081686805  0.7536794433891458  0.4999769028319321
  0.9151642669803124  0.7535405381984361  0.4979880189555885
  0.2548481741938247  0.0783428678624389  0.4992345295920799
  0.5772836679671229  0.0784247888964060  0.4985339158275508
  0.9175587188417111  0.0810346877411874  0.5042454325618166
  0.2497168853961611  0.4110294688796188  0.8341806821525992
  0.5851367311332325  0.4150467063305072  0.8366857953812143
  0.9179381826586379  0.4151654654109223  0.8347166198830607
  0.2537349928624195  0.7524726876344090  0.8345614309486322
  0.5858437859410373  0.7501424435066326  0.8343123137740847
  0.5826333197239606  0.0878718225603095  0.8352888804605527
  0.9154953400843979  0.0853935648586770  0.8334740145692408
  0.9998847380996168  0.3322018420086934  0.9992847525785038
  0.3337830589595256  0.3379087301811268  0.0040913476520572
  0.6648873885136908  0.3304188587691925  0.9973863529204081
  0.6673187518223145  0.6648497263645652  0.9947520307610986
  0.9974739619338280  0.0057740674212639  0.0017212047119912
  0.3383303559610198  0.9996362257390814  0.0007294293904820
  0.0056569967232605  0.3319778082892668  0.3262486799076001
  0.3320195534967283  0.3329524123897230  0.3321524497464452
  0.0043550271771764  0.6693560708027562  0.3328454678322288
  0.3319251448338889  0.6686854742904131  0.3304993603400348
  0.6618194746278547  0.6646298021280401  0.3348921261425062
  0.3338320856264474  0.9960915883589436  0.3334366583187958
  0.6616797864501436  0.9963290160441218  0.3290802351155051
  0.0048008023327668  0.3312899038553567  0.6744673473590694
  0.0010454558966728  0.9992908153851516  0.6653677165491700
  0.3337945693032509  0.0016222192580742  0.6644175160928256
  0.6652729505792294  0.0050737631999098  0.6708754999410473
  0.0862488315151850  0.5810937580897786  0.1677535289796594
  0.4140289539257083  0.5826829060839387  0.1686256956095136
  0.0844702375369408  0.9169399759044623  0.1644008834569135
  0.4162619838515340  0.9181884384110433  0.1699052995393515
  0.7478550784480618  0.9098488695596245  0.1625175023743068
  0.0847442585932612  0.2550407508012782  0.1692991923175526
  0.4124340782509464  0.2484586736791172  0.1633981409128040
  0.7447180197167143  0.5882138784202411  0.4989972418926953
  0.0876645450690532  0.9163783052814409  0.5031683661381976
  0.4163992705699329  0.9163097602058485  0.4994528260633047
  0.4154600611838788  0.2467647728933144  0.4960014651194484
  0.0846983641130379  0.5745043187388248  0.8299555837852850
  0.4249653663861395  0.5847126707239383  0.8382647976335846
  0.7445700011091176  0.5804535954437995  0.8351477929173114
  0.4165789632856089  0.9188524092719064  0.8336923128941649
  0.7494093346443123  0.9237801374822610  0.8343709972070741
  0.0819862858278881  0.2514774012322221  0.8336351941872238
  0.4199416531349485  0.2484010234837299  0.8345963316915146
  0.7523241148868465  0.2499751630234144  0.8376272628892352
  0.0032812217235048  0.6640608489895499  0.0022905615279498
  0.3258505517425476  0.6604880705160383  0.9929555462015074
  0.6638615156679961  0.0000708901106492  0.9987698677323209
  0.6623981315876151  0.3414839478697047  0.3340725887157916
  0.0012895432696425  0.9946351990735920  0.3329874261604786
  0.3365409527104433  0.3272570897690983  0.6690102435680387
  0.6657870449221690  0.3345420898911158  0.6694079216071600
  0.9944061890450016  0.6771569503137940  0.6684746554870387
  0.3346584610930421  0.6728657255602570  0.6729908637327426
  0.6691482832024249  0.6635954720206172  0.6650968204530869
  0.7517567439153581  0.5841354174437825  0.1668754637577265
  0.7530528073591185  0.2541857091693629  0.1673703897296122
  0.0826761468455643  0.5800535202639949  0.4935836581594160
  0.4126681186662537  0.5830487038912082  0.4964018391859781
  0.7452053818225863  0.9152138396376444  0.4953838428357642
  0.0806758070199081  0.2492662161037273  0.5003160612610955
  0.7518239857753812  0.2470051894944660  0.5020497246194751
  0.0799926370693953  0.9177168768065584  0.8321875764852749
  0.1219799781746858  0.4559861093397330  0.0834992826828724
  0.4544079776100389  0.4629279127857373  0.0835951695899340
  0.7914486741790014  0.4481231661802525  0.0783112497309091
  0.1324882075535498  0.7980227642947284  0.0868741535910331
  0.4524563728626632  0.7987772961285202  0.0815077518170000
  0.7892472040942309  0.7881777579489722  0.0817560771340951
  0.1158811918641049  0.1312654175232737  0.0804517153761140
  0.4554211819825511  0.1262845401812527  0.0831156556374992
  0.8031750633361554  0.1252302959111091  0.0827936358983905
  0.1307387764429393  0.4501248414400294  0.4104605858893535
  0.4579801022591994  0.4523253716277225  0.4104953505676221
  0.7932068716162064  0.4728654093088807  0.4193295509530870
  0.1236384453350681  0.7950504579025974  0.4156260119545863
  0.4531081750719537  0.7922454079796992  0.4157021170468553
  0.7881571260475653  0.7834103706464433  0.4082535053350753
  0.1359812586068401  0.1240650465251107  0.4181527710386987
  0.4535563994527507  0.1219542781908842  0.4153655028309799
  0.7912236574630711  0.1113045568142894  0.4155240284398545
  0.1272156196369707  0.4530815542230044  0.7505318963429559
  0.4656343537376699  0.4624988524238347  0.7569780777866271
  0.7971936374324002  0.4657154060426478  0.7579893117198253
  0.1371581700890019  0.7959362171565303  0.7491260950669698
  0.4681141902009784  0.8029006398478700  0.7572658121254463
  0.7913120955004302  0.8045177857430517  0.7511075864409875
  0.1161027111790247  0.1261121509987859  0.7473663118687810
  0.4556566985040789  0.1248176538325652  0.7497633593686714
  0.7889898952388066  0.1262867249692050  0.7529923146095925
  0.2895706577475110  0.6206047018583476  0.0869553785194910
  0.6196153225994578  0.6188692828081699  0.0701464821713529
  0.9575204148848115  0.6183286707491931  0.0886011968731282
  0.2986075420711600  0.9525900161157352  0.0792063339681661
  0.6232946108336606  0.9558205974334584  0.0881564990015136
  0.9621660505132041  0.9549782958101005  0.0808025577317508
  0.2915728883142137  0.2937342007095509  0.0838008142781561
  0.6200475001153336  0.2978742374838106  0.0807060527592398
  0.9635976775463959  0.2941244113866901  0.0846355568833488
  0.2847793963724570  0.6306049888817924  0.4100050267208744
  0.6214431570672403  0.6274234174247795  0.4182955211214079
  0.9542746688217250  0.6314692785860458  0.4112059329500397
  0.2937567474616714  0.9530974512045063  0.4145773746694914
  0.6135309740663217  0.9581927376782247  0.4080160874065086
  0.9615153897854825  0.9566079297108061  0.4256037846459577
  0.2958379656710974  0.2903349846292684  0.4153954044681925
  0.6178429493983018  0.2890716405702847  0.4174329902573675
  0.9592457277499165  0.2931648051718057  0.4053835547908093
  0.2976917433555357  0.6240563618951214  0.7613180537118325
  0.6237835275996844  0.6208883637688629  0.7531333387009909
  0.9606165834523352  0.6166346944767866  0.7515869524499479
  0.2980524391281776  0.9569280380871277  0.7459952522664253
  0.6269449261674609  0.9652152211251703  0.7538744602684417
  0.9516098408283682  0.9631720797619892  0.7440710550689644
  0.2899472386388595  0.2834048855692899  0.7549160952322040
  0.6250770185113339  0.2873270752663402  0.7572428985472826
  0.9571925782132382  0.2897323806762699  0.7515290150332632
  0.2099007262860511  0.3750301247090135  0.2504573696527288
  0.5283526779579120  0.3770981102132680  0.2413538377749092
  0.8853261602932321  0.3851067674789022  0.2558355800941357
  0.2074511786827173  0.7047973261759566  0.2476902064331128
  0.5373688458924164  0.7039429488627036  0.2542099992776556
  0.8834871744366524  0.7159432202284748  0.2549801115793926
  0.2084973701231263  0.0364857942564782  0.2535973926892368
  0.5386225533952356  0.0398735264083072  0.2508238980398758
  0.8716193007306501  0.0295510364527019  0.2344255434515432
  0.2117866094853227  0.3814835012286011  0.5850339531124149
  0.5337175929405689  0.3739382439930026  0.5783037427376883
  0.8841988898692961  0.3750204090598217  0.5949800119728366
  0.2097520073092980  0.7172692400892089  0.5798912565392200
  0.5396099155519281  0.7185844821287262  0.5851199833192595
  0.8633549230844650  0.7146542832127025  0.5770577072904572
  0.2091593705642367  0.0399190468828508  0.5828330454409993
  0.5402748150219310  0.0370022155612020  0.5837595148697261
  0.8793246473804501  0.0436396908547039  0.5890885026002550
  0.2083571363660326  0.3709660962280310  0.9182906578236043
  0.5419215697037032  0.3705886916830607  0.9166666415736984
  0.8760674872684504  0.3719393508782360  0.9168023335701605
  0.1959274680001215  0.7081476147114643  0.9066451584235935
  0.5437403991594110  0.7100019120400063  0.9181371389882074
  0.8644446691809051  0.7039668884631283  0.9184527595466605
  0.2145345361112021  0.0480865629878195  0.9291724447701384
  0.5331490411294766  0.0476361676395953  0.9142584522181565
  0.8754614146409807  0.0424485419976719  0.9163510004750677
  0.0429093517942221  0.5446552558645479  0.2501532740030825
  0.3715644035704955  0.5446305872725361  0.2504130573524392
  0.7021571389045107  0.5420545863431272  0.2528399949387534
  0.0451853769264119  0.8662260884499844  0.2409491881548647
  0.3729970780114868  0.8740015083033370  0.2484971414822397
  0.7151972434784000  0.8815131368404749  0.2537436831145001
  0.0466599448168239  0.2067351272189626  0.2489650720992316
  0.3798311716692595  0.2152491413693838  0.2527608664822125
  0.6970674056081947  0.2021120105512324  0.2444421087519117
  0.0546400020781661  0.5473013138619010  0.5937541421701980
  0.3762071837555467  0.5367721502556790  0.5859892582199464
  0.7120827348111973  0.5319573687037717  0.5768383905634238
  0.0417353483388325  0.8782756103671971  0.5838275992182034
  0.3762334780297536  0.8807575913404193  0.5833457786178400
  0.7001495548776546  0.8797332906457314  0.5865033184373587
  0.0389583970082441  0.2070615107056639  0.5886127703913644
  0.3806563001585843  0.1999792690608260  0.5779777789443514
  0.7054915337606573  0.1961509765887754  0.5846373628301791
  0.0469081436333951  0.5335829307107289  0.9129039255751721
  0.3764454637922086  0.5311200076576483  0.9095812702743231
  0.7097954758862528  0.5388450026306870  0.9182540502966248
  0.0466801189678492  0.8840509901286069  0.9296008801600451
  0.3772295240273991  0.8781933358562171  0.9159885432938992
  0.7125195312432595  0.8708382823069627  0.9121764348098012
  0.0404276739876011  0.2106363730913401  0.9152961664312329
  0.3815935547849705  0.2219347437136747  0.9240234995436936
  0.7100625949343708  0.2101261459793164  0.9191371466152347

  0.00000000E+00  0.00000000E+00  0.00000000E+00
  0.00000000E+00  0.00000000E+00  0.00000000E+00
  0.00000000E+00  0.00000000E+00  0.00000000E+00
  0.00000000E+00  0.00000000E+00  0.00000000E+00
  0.00000000E+00  0.00000000E+00  0.00000000E+00
  0.00000000E+00  0.00000000E+00  0.00000000E+00
  0.00000000E+00  0.00000000E+00  0.00000000E+00
  0.00000000E+00  0.00000000E+00  0.00000000E+00
  0.00000000E+00  0.00000000E+00  0.00000000E+00
  0.00000000E+00  0.00000000E+00  0.00000000E+00
  0.00000000E+00  0.00000000E+00  0.00000000E+00
  0.00000000E+00  0.00000000E+00  0.00000000E+00
  0.00000000E+00  0.00000000E+00  0.00000000E+00
  0.00000000E+00  0.00000000E+00  0.00000000E+00
  0.00000000E+00  0.00000000E+00  0.00000000E+00
  0.00000000E+00  0.00000000E+00  0.00000000E+00
  0.00000000E+00  0.00000000E+00  0.00000000E+00
  0.00000000E+00  0.00000000E+00  0.00000000E+00
  0.00000000E+00  0.00000000E+00  0.00000000E+00
  0.00000000E+00  0.00000000E+00  0.00000000E+00
  0.00000000E+00  0.00000000E+00  0.00000000E+00
  0.00000000E+00  0.00000000E+00  0.00000000E+00
  0.00000000E+00  0.00000000E+00  0.00000000E+00
  0.00000000E+00  0.00000000E+00  0.00000000E+00
  0.00000000E+00  0.00000000E+00  0.00000000E+00
  0.00000000E+00  0.00000000E+00  0.00000000E+00
  0.00000000E+00  0.00000000E+00  0.00000000E+00
  0.00000000E+00  0.00000000E+00  0.00000000E+00
  0.00000000E+00  0.00000000E+00  0.00000000E+00
  0.00000000E+00  0.00000000E+00  0.00000000E+00
  0.00000000E+00  0.00000000E+00  0.00000000E+00
  0.00000000E+00  0.00000000E+00  0.00000000E+00
  0.00000000E+00  0.00000000E+00  0.00000000E+00
  0.00000000E+00  0.00000000E+00  0.00000000E+00
  0.00000000E+00  0.00000000E+00  0.00000000E+00
  0.00000000E+00  0.00000000E+00  0.00000000E+00
  0.00000000E+00  0.00000000E+00  0.00000000E+00
  0.00000000E+00  0.00000000E+00  0.00000000E+00
  0.00000000E+00  0.00000000E+00  0.00000000E+00
  0.00000000E+00  0.00000000E+00  0.00000000E+00
  0.00000000E+00  0.00000000E+00  0.00000000E+00
  0.00000000E+00  0.00000000E+00  0.00000000E+00
  0.00000000E+00  0.00000000E+00  0.00000000E+00
  0.00000000E+00  0.00000000E+00  0.00000000E+00
  0.00000000E+00  0.00000000E+00  0.00000000E+00
  0.00000000E+00  0.00000000E+00  0.00000000E+00
  0.00000000E+00  0.00000000E+00  0.00000000E+00
  0.00000000E+00  0.00000000E+00  0.00000000E+00
  0.00000000E+00  0.00000000E+00  0.00000000E+00
  0.00000000E+00  0.00000000E+00  0.00000000E+00
  0.00000000E+00  0.00000000E+00  0.00000000E+00
  0.00000000E+00  0.00000000E+00  0.00000000E+00
  0.00000000E+00  0.00000000E+00  0.00000000E+00
  0.00000000E+00  0.00000000E+00  0.00000000E+00
  0.00000000E+00  0.00000000E+00  0.00000000E+00
  0.00000000E+00  0.00000000E+00  0.00000000E+00
  0.00000000E+00  0.00000000E+00  0.00000000E+00
  0.00000000E+00  0.00000000E+00  0.00000000E+00
  0.00000000E+00  0.00000000E+00  0.00000000E+00
  0.00000000E+00  0.00000000E+00  0.00000000E+00
  0.00000000E+00  0.00000000E+00  0.00000000E+00
  0.00000000E+00  0.00000000E+00  0.00000000E+00
  0.00000000E+00  0.00000000E+00  0.00000000E+00
  0.00000000E+00  0.00000000E+00  0.00000000E+00
  0.00000000E+00  0.00000000E+00  0.00000000E+00
  0.00000000E+00  0.00000000E+00  0.00000000E+00
  0.00000000E+00  0.00000000E+00  0.00000000E+00
  0.00000000E+00  0.00000000E+00  0.00000000E+00
  0.00000000E+00  0.00000000E+00  0.00000000E+00
  0.00000000E+00  0.00000000E+00  0.00000000E+00
  0.00000000E+00  0.00000000E+00  0.00000000E+00
  0.00000000E+00  0.00000000E+00  0.00000000E+00
  0.00000000E+00  0.00000000E+00  0.00000000E+00
  0.00000000E+00  0.00000000E+00  0.00000000E+00
  0.00000000E+00  0.00000000E+00  0.00000000E+00
  0.00000000E+00  0.00000000E+00  0.00000000E+00
  0.00000000E+00  0.00000000E+00  0.00000000E+00
  0.00000000E+00  0.00000000E+00  0.00000000E+00
  0.00000000E+00  0.00000000E+00  0.00000000E+00
  0.00000000E+00  0.00000000E+00  0.00000000E+00
  0.00000000E+00  0.00000000E+00  0.00000000E+00
  0.00000000E+00  0.00000000E+00  0.00000000E+00
  0.00000000E+00  0.00000000E+00  0.00000000E+00
  0.00000000E+00  0.00000000E+00  0.00000000E+00
  0.00000000E+00  0.00000000E+00  0.00000000E+00
  0.00000000E+00  0.00000000E+00  0.00000000E+00
  0.00000000E+00  0.00000000E+00  0.00000000E+00
  0.00000000E+00  0.00000000E+00  0.00000000E+00
  0.00000000E+00  0.00000000E+00  0.00000000E+00
  0.00000000E+00  0.00000000E+00  0.00000000E+00
  0.00000000E+00  0.00000000E+00  0.00000000E+00
  0.00000000E+00  0.00000000E+00  0.00000000E+00
  0.00000000E+00  0.00000000E+00  0.00000000E+00
  0.00000000E+00  0.00000000E+00  0.00000000E+00
  0.00000000E+00  0.00000000E+00  0.00000000E+00
  0.00000000E+00  0.00000000E+00  0.00000000E+00
  0.00000000E+00  0.00000000E+00  0.00000000E+00
  0.00000000E+00  0.00000000E+00  0.00000000E+00
  0.00000000E+00  0.00000000E+00  0.00000000E+00
  0.00000000E+00  0.00000000E+00  0.00000000E+00
  0.00000000E+00  0.00000000E+00  0.00000000E+00
  0.00000000E+00  0.00000000E+00  0.00000000E+00
  0.00000000E+00  0.00000000E+00  0.00000000E+00
  0.00000000E+00  0.00000000E+00  0.00000000E+00
  0.00000000E+00  0.00000000E+00  0.00000000E+00
  0.00000000E+00  0.00000000E+00  0.00000000E+00
  0.00000000E+00  0.00000000E+00  0.00000000E+00
  0.00000000E+00  0.00000000E+00  0.00000000E+00
  0.00000000E+00  0.00000000E+00  0.00000000E+00
  0.00000000E+00  0.00000000E+00  0.00000000E+00
  0.00000000E+00  0.00000000E+00  0.00000000E+00
  0.00000000E+00  0.00000000E+00  0.00000000E+00
  0.00000000E+00  0.00000000E+00  0.00000000E+00
  0.00000000E+00  0.00000000E+00  0.00000000E+00
  0.00000000E+00  0.00000000E+00  0.00000000E+00
  0.00000000E+00  0.00000000E+00  0.00000000E+00
  0.00000000E+00  0.00000000E+00  0.00000000E+00
  0.00000000E+00  0.00000000E+00  0.00000000E+00
  0.00000000E+00  0.00000000E+00  0.00000000E+00
  0.00000000E+00  0.00000000E+00  0.00000000E+00
  0.00000000E+00  0.00000000E+00  0.00000000E+00
  0.00000000E+00  0.00000000E+00  0.00000000E+00
  0.00000000E+00  0.00000000E+00  0.00000000E+00
  0.00000000E+00  0.00000000E+00  0.00000000E+00
  0.00000000E+00  0.00000000E+00  0.00000000E+00
  0.00000000E+00  0.00000000E+00  0.00000000E+00
  0.00000000E+00  0.00000000E+00  0.00000000E+00
  0.00000000E+00  0.00000000E+00  0.00000000E+00
  0.00000000E+00  0.00000000E+00  0.00000000E+00
  0.00000000E+00  0.00000000E+00  0.00000000E+00
  0.00000000E+00  0.00000000E+00  0.00000000E+00
  0.00000000E+00  0.00000000E+00  0.00000000E+00
  0.00000000E+00  0.00000000E+00  0.00000000E+00
  0.00000000E+00  0.00000000E+00  0.00000000E+00
  0.00000000E+00  0.00000000E+00  0.00000000E+00
  0.00000000E+00  0.00000000E+00  0.00000000E+00
  0.00000000E+00  0.00000000E+00  0.00000000E+00
  0.00000000E+00  0.00000000E+00  0.00000000E+00
  0.00000000E+00  0.00000000E+00  0.00000000E+00
  0.00000000E+00  0.00000000E+00  0.00000000E+00
  0.00000000E+00  0.00000000E+00  0.00000000E+00
  0.00000000E+00  0.00000000E+00  0.00000000E+00
  0.00000000E+00  0.00000000E+00  0.00000000E+00
  0.00000000E+00  0.00000000E+00  0.00000000E+00
  0.00000000E+00  0.00000000E+00  0.00000000E+00
  0.00000000E+00  0.00000000E+00  0.00000000E+00
  0.00000000E+00  0.00000000E+00  0.00000000E+00
  0.00000000E+00  0.00000000E+00  0.00000000E+00
  0.00000000E+00  0.00000000E+00  0.00000000E+00
  0.00000000E+00  0.00000000E+00  0.00000000E+00
  0.00000000E+00  0.00000000E+00  0.00000000E+00
  0.00000000E+00  0.00000000E+00  0.00000000E+00
  0.00000000E+00  0.00000000E+00  0.00000000E+00
  0.00000000E+00  0.00000000E+00  0.00000000E+00
  0.00000000E+00  0.00000000E+00  0.00000000E+00
  0.00000000E+00  0.00000000E+00  0.00000000E+00
  0.00000000E+00  0.00000000E+00  0.00000000E+00
  0.00000000E+00  0.00000000E+00  0.00000000E+00
  0.00000000E+00  0.00000000E+00  0.00000000E+00
  0.00000000E+00  0.00000000E+00  0.00000000E+00
  0.00000000E+00  0.00000000E+00  0.00000000E+00
  0.00000000E+00  0.00000000E+00  0.00000000E+00
  0.00000000E+00  0.00000000E+00  0.00000000E+00
  0.00000000E+00  0.00000000E+00  0.00000000E+00
  0.00000000E+00  0.00000000E+00  0.00000000E+00
  0.00000000E+00  0.00000000E+00  0.00000000E+00
  0.00000000E+00  0.00000000E+00  0.00000000E+00
  0.00000000E+00  0.00000000E+00  0.00000000E+00
  0.00000000E+00  0.00000000E+00  0.00000000E+00
  0.00000000E+00  0.00000000E+00  0.00000000E+00
  0.00000000E+00  0.00000000E+00  0.00000000E+00
  0.00000000E+00  0.00000000E+00  0.00000000E+00
  0.00000000E+00  0.00000000E+00  0.00000000E+00
  0.00000000E+00  0.00000000E+00  0.00000000E+00
  0.00000000E+00  0.00000000E+00  0.00000000E+00
  0.00000000E+00  0.00000000E+00  0.00000000E+00
  0.00000000E+00  0.00000000E+00  0.00000000E+00
  0.00000000E+00  0.00000000E+00  0.00000000E+00
  0.00000000E+00  0.00000000E+00  0.00000000E+00
  0.00000000E+00  0.00000000E+00  0.00000000E+00
  0.00000000E+00  0.00000000E+00  0.00000000E+00
  0.00000000E+00  0.00000000E+00  0.00000000E+00
  0.00000000E+00  0.00000000E+00  0.00000000E+00
  0.00000000E+00  0.00000000E+00  0.00000000E+00
  0.00000000E+00  0.00000000E+00  0.00000000E+00
  0.00000000E+00  0.00000000E+00  0.00000000E+00
  0.00000000E+00  0.00000000E+00  0.00000000E+00
  0.00000000E+00  0.00000000E+00  0.00000000E+00
  0.00000000E+00  0.00000000E+00  0.00000000E+00
  0.00000000E+00  0.00000000E+00  0.00000000E+00
  0.00000000E+00  0.00000000E+00  0.00000000E+00
  0.00000000E+00  0.00000000E+00  0.00000000E+00
  0.00000000E+00  0.00000000E+00  0.00000000E+00
  0.00000000E+00  0.00000000E+00  0.00000000E+00
  0.00000000E+00  0.00000000E+00  0.00000000E+00
  0.00000000E+00  0.00000000E+00  0.00000000E+00
  0.00000000E+00  0.00000000E+00  0.00000000E+00
  0.00000000E+00  0.00000000E+00  0.00000000E+00
  0.00000000E+00  0.00000000E+00  0.00000000E+00
  0.00000000E+00  0.00000000E+00  0.00000000E+00
  0.00000000E+00  0.00000000E+00  0.00000000E+00
  0.00000000E+00  0.00000000E+00  0.00000000E+00
  0.00000000E+00  0.00000000E+00  0.00000000E+00
  0.00000000E+00  0.00000000E+00  0.00000000E+00
  0.00000000E+00  0.00000000E+00  0.00000000E+00
  0.00000000E+00  0.00000000E+00  0.00000000E+00
  0.00000000E+00  0.00000000E+00  0.00000000E+00
  0.00000000E+00  0.00000000E+00  0.00000000E+00
  0.00000000E+00  0.00000000E+00  0.00000000E+00
  0.00000000E+00  0.00000000E+00  0.00000000E+00
  0.00000000E+00  0.00000000E+00  0.00000000E+00
  0.00000000E+00  0.00000000E+00  0.00000000E+00
  0.00000000E+00  0.00000000E+00  0.00000000E+00
  0.00000000E+00  0.00000000E+00  0.00000000E+00
  0.00000000E+00  0.00000000E+00  0.00000000E+00
  0.00000000E+00  0.00000000E+00  0.00000000E+00
