In18 Ga36 Cu54 Se108                    
   1.0000000000000000     
    15.7181583703988892    0.0729522897337379   -7.0503021684394787
    -3.2274791894621289   15.3965670235478278   -7.0504897735976177
     0.0181924492532818    0.0051677985247184   21.0942902060985276
   In   Ga   Cu   Se
    18    36    54   108
Direct
  0.5002439186569703  0.5000754469847877  0.0001819193543611
  0.4992662324799042  0.8317743396248147  0.0004856451230566
  0.4972266564789436  0.8286381839438519  0.3309981586797903
  0.8361487613821907  0.1667848907861682  0.3344864225574895
  0.1700061916960109  0.5031933992969755  0.6687532468824244
  0.8358554157510270  0.5029338338604248  0.6701102162187809
  0.1663726553599858  0.1671965086391367  0.6652428224082243
  0.4991769513644755  0.1652670088571639  0.6686016662000824
  0.8349112859036438  0.1667098072491981  0.6685942854831524
  0.9188616679326529  0.7487946686175277  0.1668255218142107
  0.5816826806841533  0.0865917234134557  0.1667298458824931
  0.9187089383952198  0.0818126086699635  0.1650206003555397
  0.5795455203550048  0.4157185609010199  0.4975090804712536
  0.9170021577148546  0.4199350988828314  0.4982520852448147
  0.9176181954971767  0.7497284841196432  0.5000457914502832
  0.5805707050990350  0.0837656692593356  0.4981016966894671
  0.5856089682245482  0.7482584948544968  0.8316057912321213
  0.2490785935752271  0.0834086819121964  0.8353715365636631
  0.1666537799613579  0.4998882885055167  0.0009411218195652
  0.8351764990100818  0.4966079770405756  0.9994341674761174
  0.1663477954564527  0.8338968332203862  0.9999108574995432
  0.8356893842092958  0.8332612675230422  0.9980323825920223
  0.1636450284639963  0.1674574242642208  0.0021671924537685
  0.5000859372007795  0.1697431864748893  0.0003708988738680
  0.8334072605937877  0.1680950223960380  0.9990421152032170
  0.1670949745781911  0.5007643913816793  0.3329593777964277
  0.4957460108050284  0.5017405475329824  0.3311895807547103
  0.8318872002284365  0.4982098702998172  0.3291349064236897
  0.1705333526425790  0.8330426427027007  0.3343542731164817
  0.8313239979438478  0.8328633128055145  0.3328953359587672
  0.1685344120462915  0.1688215321630651  0.3338467018323712
  0.4958836367633026  0.1647017623837854  0.3302668550932637
  0.4991972670229075  0.4981064806932380  0.6667900308656414
  0.1692850052417967  0.8326042602186021  0.6665198084023416
  0.4986304076419401  0.8338585266489176  0.6656995605321825
  0.8314835178738420  0.8335602361704630  0.6690348103823993
  0.2485265942967771  0.4171806021302800  0.1660113120755966
  0.5818281920598025  0.4159304180963019  0.1678220086843609
  0.9181648450846325  0.4174031188360274  0.1663657120510749
  0.2461593527479167  0.7481856164662233  0.1646236536581966
  0.5849037570869484  0.7489893703480064  0.1676954827015109
  0.2491810902414286  0.0845496547248175  0.1662377801038062
  0.2519634433627047  0.4165196707571894  0.4985587134380793
  0.2490937576660102  0.7495383962239401  0.4991268619540890
  0.5818026732730033  0.7486689386382892  0.5013802065693724
  0.2497361783650192  0.0806825842834371  0.4965680259805936
  0.9155960024926202  0.0793185089918396  0.4979206615709160
  0.2488393480136892  0.4180059993209184  0.8356343383318574
  0.5871292993724140  0.4176751243084666  0.8344857455495927
  0.9196213232378767  0.4182000115507094  0.8377808371761191
  0.2503554341930894  0.7546343644412801  0.8343192304031746
  0.9181510664708199  0.7524284002726347  0.8357735991938284
  0.5830152783810973  0.0820948262665127  0.8357618246771565
  0.9172388272921026  0.0828412009460280  0.8356809329805017
  0.0013039843599074  0.3331148839793414  0.0018783676787706
  0.3322906542174024  0.3332119515486127  0.0030497359476769
  0.6704639532379915  0.3335756707080009  0.0019105198964553
  0.9990731132017601  0.6660235582388196  0.9977061630276580
  0.3307373272280998  0.6678180981246911  0.0014657572046914
  0.6705038151940599  0.6650907227773999  0.0006993193140019
  0.0018106316817565  0.0002723473008714  0.9990494183483705
  0.3296022845050572  0.0010200698542278  0.0012672917143064
  0.6677821429858923  0.0030790310184585  0.9988827446614081
  0.0039573692720154  0.3387307469174843  0.3316809738142226
  0.3296202485393849  0.3321031692048138  0.3285609148134938
  0.6624368016465709  0.3369519322529655  0.3314454531019422
  0.0030701514533789  0.6648226940662099  0.3326694945577557
  0.3294970785094478  0.6636213915188165  0.3323373968001135
  0.6648874396354998  0.6619550803434677  0.3303563943717265
  0.0051040137359095  0.9980762362373810  0.3369050902502195
  0.3266946579038787  0.9999616376986395  0.3301716975451967
  0.6662620506452797  0.9964547957387353  0.3304869803619326
  0.0003411242953675  0.3316329795263186  0.6673551053815530
  0.3357673061755762  0.3346840977794230  0.6677226680074284
  0.6667737864168117  0.3378804288120563  0.6713792364569571
  0.0013787507381764  0.6750357172042669  0.6724298147518084
  0.3322255971540642  0.6672656923362936  0.6635884370165144
  0.6673013077897991  0.6697252045778086  0.6673291531648786
  0.9996365974754582  0.9973851810804817  0.6681051258888573
  0.3335244891267166  0.9961129979338850  0.6636044048822782
  0.6685625428983641  0.9949657333409974  0.6696544877857349
  0.0853736334895459  0.5814553344331728  0.1664681648515227
  0.4114028595476569  0.5812206363825965  0.1645222960742601
  0.7516396732604917  0.5820821246714303  0.1678251101209440
  0.0874420557689817  0.9145814415286395  0.1663638477820371
  0.4121169209019371  0.9162292777738017  0.1669100917576642
  0.7503988363667276  0.9122921341322936  0.1654582573006067
  0.0837661878569094  0.2518902048411604  0.1658066307665038
  0.4132926394854550  0.2524773735898620  0.1657406006499826
  0.7508513316952588  0.2551628796120795  0.1642673683146612
  0.0851360674287776  0.5832674682033172  0.4978468464724202
  0.4151685780424827  0.5857058371557002  0.5013208948540893
  0.7469244414218963  0.5875903014756432  0.4963350324201272
  0.0842118659462159  0.9139030880295920  0.4974767770843513
  0.4140215867936021  0.9136359754415437  0.4988248282064234
  0.7506235701906618  0.9131215927967631  0.5016639899287085
  0.0876181765681423  0.2480239930837840  0.4988114321003394
  0.4120277802556558  0.2505816168173283  0.4981696820248587
  0.7470955292624737  0.2475726579741888  0.4967270050231392
  0.0884419491063611  0.5859588069867172  0.8386339653264585
  0.4147468418440354  0.5793812243655196  0.8312127681628212
  0.7507227070096789  0.5831456366526524  0.8365669434511318
  0.0795502320711989  0.9158982699809641  0.8322195727618364
  0.4170918544411748  0.9183422916210020  0.8331864092436376
  0.7522493246597577  0.9194917934722113  0.8340574708757345
  0.0857478804342549  0.2552194397131444  0.8407998661114178
  0.4187718762325474  0.2520859970572573  0.8352080110806597
  0.7527680618719401  0.2498939110636087  0.8374321747322639
  0.1228418334610950  0.4573440830625017  0.0827492889102288
  0.4535519299128836  0.4558562276582450  0.0879051643691184
  0.7913990145870216  0.4587598419570824  0.0840427623492417
  0.1214990659210002  0.7894870612510871  0.0808521496428725
  0.4542042997717388  0.7896935437722021  0.0899910577887937
  0.7861070906978966  0.7923577097539933  0.0770577404971604
  0.1215167947764755  0.1258680583127685  0.0847381153679407
  0.4468210927226934  0.1288248385854942  0.0776490248229464
  0.7851443528445969  0.1296713156979266  0.0796527617827465
  0.1263475697313297  0.4604463323493277  0.4173789601920177
  0.4458321695459162  0.4612056689165200  0.4103200221833347
  0.7813563818956339  0.4630373070564175  0.4105450118139871
  0.1235122079006032  0.7899870043912358  0.4148384441840491
  0.4520496555456361  0.7862799242661467  0.4201643246081446
  0.7812520654229900  0.7903181486540731  0.4109111456829666
  0.1244825909806053  0.1236547172025126  0.4150808104534107
  0.4452877343288222  0.1268225303518449  0.4102101146345802
  0.7863572731019133  0.1202606566471118  0.4194042956899153
  0.1202704361870133  0.4567124353442722  0.7540931089892240
  0.4582883494850876  0.4574612989828495  0.7511255021371213
  0.7908027531261510  0.4579231464733056  0.7580404042487174
  0.1245669857647300  0.7960388502834519  0.7510374477538662
  0.4506757347577590  0.7938907965288635  0.7456695452375897
  0.7899705286788219  0.7930007378420285  0.7528687522950648
  0.1127680292299473  0.1277756565221324  0.7514145627316893
  0.4525414297892141  0.1209593296845455  0.7558894602911010
  0.7872321438993382  0.1211960973751545  0.7554250150401884
  0.2916467900340649  0.6246565109450160  0.0830841332474819
  0.6356632368753310  0.6310823917796071  0.0881734098382694
  0.9638364917821107  0.6165716993617920  0.0779660933972224
  0.2923711324812572  0.9588488372630977  0.0840346921316524
  0.6365362097803455  0.9595773172284368  0.0834544703924891
  0.9660807898144839  0.9502302554972459  0.0783175659675663
  0.2897424898410250  0.2915229449228178  0.0832241077658935
  0.6261125869907644  0.2941597707581920  0.0833106367691343
  0.9602896666343455  0.2918893317305091  0.0834857128040269
  0.2924235994120394  0.6250616759983529  0.4169727135793408
  0.6227721188926338  0.6259121840810806  0.4143363986482029
  0.9619689235589348  0.6169678736495072  0.4105251399747871
  0.2962182226458339  0.9575047307590907  0.4160202307932579
  0.6347503548351625  0.9555905886672065  0.4161090947545389
  0.9605481980160704  0.9552801550656795  0.4161359527861634
  0.2942875987266120  0.2932126893924192  0.4144322501876090
  0.6263534840722755  0.2837649579213561  0.4090083572933025
  0.9731803794580429  0.2941898155135689  0.4155923406895496
  0.3028553245648240  0.6359922345315496  0.7558269721371786
  0.6308283824706393  0.6152121440202478  0.7439918646082475
  0.9708516861820371  0.6340872753776665  0.7585581258780323
  0.2956664420983159  0.9534611956984520  0.7455151822486386
  0.6258760109149009  0.9573081792950191  0.7519880528319760
  0.9580049660289234  0.9576113805948410  0.7502080484460407
  0.3007226698321475  0.2999792339646348  0.7557032017215164
  0.6349263144998289  0.2960318162124764  0.7559759241975428
  0.9685530337938957  0.2990793444723323  0.7575743847107148
  0.2064098330967852  0.3742692281054261  0.2482554148844827
  0.5371867037576337  0.3740598377590274  0.2495557805767916
  0.8769190762452226  0.3734057889751696  0.2486298947237628
  0.2078207249376121  0.7050381052653094  0.2492591290224340
  0.5414288421720386  0.6952923065815995  0.2428167734740470
  0.8746322492209586  0.7042924133449233  0.2556206952687106
  0.2058706145231000  0.0415532983576554  0.2480701241374632
  0.5376805037191374  0.0353984482208958  0.2526736359876338
  0.8777785279318451  0.0280222533570509  0.2501052541368693
  0.2126220936805936  0.3682773837730835  0.5795165944829677
  0.5380942855053661  0.3688924816961219  0.5869081750983085
  0.8743870634113549  0.3646337383995402  0.5817954757126316
  0.2073886241701715  0.7056876915514181  0.5811878652035247
  0.5411202571413796  0.7063437285158116  0.5850072619790154
  0.8723393990151820  0.7061163142119113  0.5888313202159523
  0.2110736665777253  0.0325926077160048  0.5774356897097235
  0.5426239453276267  0.0284862212453731  0.5838879758109314
  0.8773111582065454  0.0311540420913801  0.5793869545277062
  0.2109866673188421  0.3744611134080031  0.9202425326760704
  0.5472280933946649  0.3674887730628598  0.9134698198881921
  0.8774051266695295  0.3706339437978983  0.9181001153860961
  0.2107461074141952  0.7098028553499418  0.9179379078812104
  0.5425080671056790  0.6947911256139889  0.9158783813956930
  0.8743369893324981  0.7049975928604297  0.9153128194498237
  0.2020514135653215  0.0380997191788595  0.9219649881807257
  0.5406427071656807  0.0403238116602154  0.9185428252389727
  0.8767645001229667  0.0406371088711452  0.9189011337408886
  0.0429514688513493  0.5431424793428690  0.2487719783763964
  0.3713221944563401  0.5443631200368486  0.2484077646627583
  0.7069452954564781  0.5411266918837541  0.2476610700432147
  0.0517180924406944  0.8824765106058052  0.2547186062629265
  0.3647058306863116  0.8774599516379453  0.2457595710241236
  0.7081783985558161  0.8757756010771942  0.2481763031349118
  0.0492081523115857  0.2175426278874752  0.2535622434384521
  0.3735278301178866  0.2105520262243630  0.2476766632516174
  0.7106031437180320  0.2224851732751958  0.2500736675849282
  0.0429514074074220  0.5583855488134901  0.5858699459405443
  0.3758152894686262  0.5436495681469324  0.5840529027654640
  0.7081590104347697  0.5521518522964328  0.5814220750996242
  0.0502489688909620  0.8835304756109821  0.5880754631069678
  0.3739347076805899  0.8747619359836349  0.5814509434989716
  0.7075147321166639  0.8746557578045469  0.5836982159178490
  0.0336381563195189  0.2111099786781452  0.5758051246076903
  0.3681116276535050  0.2105802081993957  0.5785924402050782
  0.7074360296943070  0.2214803941871963  0.5853303964641441
  0.0435902808613733  0.5443659594475037  0.9183948871270999
  0.3672659255830624  0.5473525398017003  0.9134516873119978
  0.7113866302155358  0.5433079522881030  0.9193833861750278
  0.0422544996417855  0.8776503661895987  0.9170257185945232
  0.3697461005246936  0.8832967422398070  0.9145275942920392
  0.7159660321591659  0.8843736284260615  0.9205395404291181
  0.0405990528229125  0.2103034219453406  0.9183687668356129
  0.3801101270482832  0.2188600265693381  0.9214876586511593
  0.7073930459986002  0.2094485369261747  0.9170403738966968

  0.00000000E+00  0.00000000E+00  0.00000000E+00
  0.00000000E+00  0.00000000E+00  0.00000000E+00
  0.00000000E+00  0.00000000E+00  0.00000000E+00
  0.00000000E+00  0.00000000E+00  0.00000000E+00
  0.00000000E+00  0.00000000E+00  0.00000000E+00
  0.00000000E+00  0.00000000E+00  0.00000000E+00
  0.00000000E+00  0.00000000E+00  0.00000000E+00
  0.00000000E+00  0.00000000E+00  0.00000000E+00
  0.00000000E+00  0.00000000E+00  0.00000000E+00
  0.00000000E+00  0.00000000E+00  0.00000000E+00
  0.00000000E+00  0.00000000E+00  0.00000000E+00
  0.00000000E+00  0.00000000E+00  0.00000000E+00
  0.00000000E+00  0.00000000E+00  0.00000000E+00
  0.00000000E+00  0.00000000E+00  0.00000000E+00
  0.00000000E+00  0.00000000E+00  0.00000000E+00
  0.00000000E+00  0.00000000E+00  0.00000000E+00
  0.00000000E+00  0.00000000E+00  0.00000000E+00
  0.00000000E+00  0.00000000E+00  0.00000000E+00
  0.00000000E+00  0.00000000E+00  0.00000000E+00
  0.00000000E+00  0.00000000E+00  0.00000000E+00
  0.00000000E+00  0.00000000E+00  0.00000000E+00
  0.00000000E+00  0.00000000E+00  0.00000000E+00
  0.00000000E+00  0.00000000E+00  0.00000000E+00
  0.00000000E+00  0.00000000E+00  0.00000000E+00
  0.00000000E+00  0.00000000E+00  0.00000000E+00
  0.00000000E+00  0.00000000E+00  0.00000000E+00
  0.00000000E+00  0.00000000E+00  0.00000000E+00
  0.00000000E+00  0.00000000E+00  0.00000000E+00
  0.00000000E+00  0.00000000E+00  0.00000000E+00
  0.00000000E+00  0.00000000E+00  0.00000000E+00
  0.00000000E+00  0.00000000E+00  0.00000000E+00
  0.00000000E+00  0.00000000E+00  0.00000000E+00
  0.00000000E+00  0.00000000E+00  0.00000000E+00
  0.00000000E+00  0.00000000E+00  0.00000000E+00
  0.00000000E+00  0.00000000E+00  0.00000000E+00
  0.00000000E+00  0.00000000E+00  0.00000000E+00
  0.00000000E+00  0.00000000E+00  0.00000000E+00
  0.00000000E+00  0.00000000E+00  0.00000000E+00
  0.00000000E+00  0.00000000E+00  0.00000000E+00
  0.00000000E+00  0.00000000E+00  0.00000000E+00
  0.00000000E+00  0.00000000E+00  0.00000000E+00
  0.00000000E+00  0.00000000E+00  0.00000000E+00
  0.00000000E+00  0.00000000E+00  0.00000000E+00
  0.00000000E+00  0.00000000E+00  0.00000000E+00
  0.00000000E+00  0.00000000E+00  0.00000000E+00
  0.00000000E+00  0.00000000E+00  0.00000000E+00
  0.00000000E+00  0.00000000E+00  0.00000000E+00
  0.00000000E+00  0.00000000E+00  0.00000000E+00
  0.00000000E+00  0.00000000E+00  0.00000000E+00
  0.00000000E+00  0.00000000E+00  0.00000000E+00
  0.00000000E+00  0.00000000E+00  0.00000000E+00
  0.00000000E+00  0.00000000E+00  0.00000000E+00
  0.00000000E+00  0.00000000E+00  0.00000000E+00
  0.00000000E+00  0.00000000E+00  0.00000000E+00
  0.00000000E+00  0.00000000E+00  0.00000000E+00
  0.00000000E+00  0.00000000E+00  0.00000000E+00
  0.00000000E+00  0.00000000E+00  0.00000000E+00
  0.00000000E+00  0.00000000E+00  0.00000000E+00
  0.00000000E+00  0.00000000E+00  0.00000000E+00
  0.00000000E+00  0.00000000E+00  0.00000000E+00
  0.00000000E+00  0.00000000E+00  0.00000000E+00
  0.00000000E+00  0.00000000E+00  0.00000000E+00
  0.00000000E+00  0.00000000E+00  0.00000000E+00
  0.00000000E+00  0.00000000E+00  0.00000000E+00
  0.00000000E+00  0.00000000E+00  0.00000000E+00
  0.00000000E+00  0.00000000E+00  0.00000000E+00
  0.00000000E+00  0.00000000E+00  0.00000000E+00
  0.00000000E+00  0.00000000E+00  0.00000000E+00
  0.00000000E+00  0.00000000E+00  0.00000000E+00
  0.00000000E+00  0.00000000E+00  0.00000000E+00
  0.00000000E+00  0.00000000E+00  0.00000000E+00
  0.00000000E+00  0.00000000E+00  0.00000000E+00
  0.00000000E+00  0.00000000E+00  0.00000000E+00
  0.00000000E+00  0.00000000E+00  0.00000000E+00
  0.00000000E+00  0.00000000E+00  0.00000000E+00
  0.00000000E+00  0.00000000E+00  0.00000000E+00
  0.00000000E+00  0.00000000E+00  0.00000000E+00
  0.00000000E+00  0.00000000E+00  0.00000000E+00
  0.00000000E+00  0.00000000E+00  0.00000000E+00
  0.00000000E+00  0.00000000E+00  0.00000000E+00
  0.00000000E+00  0.00000000E+00  0.00000000E+00
  0.00000000E+00  0.00000000E+00  0.00000000E+00
  0.00000000E+00  0.00000000E+00  0.00000000E+00
  0.00000000E+00  0.00000000E+00  0.00000000E+00
  0.00000000E+00  0.00000000E+00  0.00000000E+00
  0.00000000E+00  0.00000000E+00  0.00000000E+00
  0.00000000E+00  0.00000000E+00  0.00000000E+00
  0.00000000E+00  0.00000000E+00  0.00000000E+00
  0.00000000E+00  0.00000000E+00  0.00000000E+00
  0.00000000E+00  0.00000000E+00  0.00000000E+00
  0.00000000E+00  0.00000000E+00  0.00000000E+00
  0.00000000E+00  0.00000000E+00  0.00000000E+00
  0.00000000E+00  0.00000000E+00  0.00000000E+00
  0.00000000E+00  0.00000000E+00  0.00000000E+00
  0.00000000E+00  0.00000000E+00  0.00000000E+00
  0.00000000E+00  0.00000000E+00  0.00000000E+00
  0.00000000E+00  0.00000000E+00  0.00000000E+00
  0.00000000E+00  0.00000000E+00  0.00000000E+00
  0.00000000E+00  0.00000000E+00  0.00000000E+00
  0.00000000E+00  0.00000000E+00  0.00000000E+00
  0.00000000E+00  0.00000000E+00  0.00000000E+00
  0.00000000E+00  0.00000000E+00  0.00000000E+00
  0.00000000E+00  0.00000000E+00  0.00000000E+00
  0.00000000E+00  0.00000000E+00  0.00000000E+00
  0.00000000E+00  0.00000000E+00  0.00000000E+00
  0.00000000E+00  0.00000000E+00  0.00000000E+00
  0.00000000E+00  0.00000000E+00  0.00000000E+00
  0.00000000E+00  0.00000000E+00  0.00000000E+00
  0.00000000E+00  0.00000000E+00  0.00000000E+00
  0.00000000E+00  0.00000000E+00  0.00000000E+00
  0.00000000E+00  0.00000000E+00  0.00000000E+00
  0.00000000E+00  0.00000000E+00  0.00000000E+00
  0.00000000E+00  0.00000000E+00  0.00000000E+00
  0.00000000E+00  0.00000000E+00  0.00000000E+00
  0.00000000E+00  0.00000000E+00  0.00000000E+00
  0.00000000E+00  0.00000000E+00  0.00000000E+00
  0.00000000E+00  0.00000000E+00  0.00000000E+00
  0.00000000E+00  0.00000000E+00  0.00000000E+00
  0.00000000E+00  0.00000000E+00  0.00000000E+00
  0.00000000E+00  0.00000000E+00  0.00000000E+00
  0.00000000E+00  0.00000000E+00  0.00000000E+00
  0.00000000E+00  0.00000000E+00  0.00000000E+00
  0.00000000E+00  0.00000000E+00  0.00000000E+00
  0.00000000E+00  0.00000000E+00  0.00000000E+00
  0.00000000E+00  0.00000000E+00  0.00000000E+00
  0.00000000E+00  0.00000000E+00  0.00000000E+00
  0.00000000E+00  0.00000000E+00  0.00000000E+00
  0.00000000E+00  0.00000000E+00  0.00000000E+00
  0.00000000E+00  0.00000000E+00  0.00000000E+00
  0.00000000E+00  0.00000000E+00  0.00000000E+00
  0.00000000E+00  0.00000000E+00  0.00000000E+00
  0.00000000E+00  0.00000000E+00  0.00000000E+00
  0.00000000E+00  0.00000000E+00  0.00000000E+00
  0.00000000E+00  0.00000000E+00  0.00000000E+00
  0.00000000E+00  0.00000000E+00  0.00000000E+00
  0.00000000E+00  0.00000000E+00  0.00000000E+00
  0.00000000E+00  0.00000000E+00  0.00000000E+00
  0.00000000E+00  0.00000000E+00  0.00000000E+00
  0.00000000E+00  0.00000000E+00  0.00000000E+00
  0.00000000E+00  0.00000000E+00  0.00000000E+00
  0.00000000E+00  0.00000000E+00  0.00000000E+00
  0.00000000E+00  0.00000000E+00  0.00000000E+00
  0.00000000E+00  0.00000000E+00  0.00000000E+00
  0.00000000E+00  0.00000000E+00  0.00000000E+00
  0.00000000E+00  0.00000000E+00  0.00000000E+00
  0.00000000E+00  0.00000000E+00  0.00000000E+00
  0.00000000E+00  0.00000000E+00  0.00000000E+00
  0.00000000E+00  0.00000000E+00  0.00000000E+00
  0.00000000E+00  0.00000000E+00  0.00000000E+00
  0.00000000E+00  0.00000000E+00  0.00000000E+00
  0.00000000E+00  0.00000000E+00  0.00000000E+00
  0.00000000E+00  0.00000000E+00  0.00000000E+00
  0.00000000E+00  0.00000000E+00  0.00000000E+00
  0.00000000E+00  0.00000000E+00  0.00000000E+00
  0.00000000E+00  0.00000000E+00  0.00000000E+00
  0.00000000E+00  0.00000000E+00  0.00000000E+00
  0.00000000E+00  0.00000000E+00  0.00000000E+00
  0.00000000E+00  0.00000000E+00  0.00000000E+00
  0.00000000E+00  0.00000000E+00  0.00000000E+00
  0.00000000E+00  0.00000000E+00  0.00000000E+00
  0.00000000E+00  0.00000000E+00  0.00000000E+00
  0.00000000E+00  0.00000000E+00  0.00000000E+00
  0.00000000E+00  0.00000000E+00  0.00000000E+00
  0.00000000E+00  0.00000000E+00  0.00000000E+00
  0.00000000E+00  0.00000000E+00  0.00000000E+00
  0.00000000E+00  0.00000000E+00  0.00000000E+00
  0.00000000E+00  0.00000000E+00  0.00000000E+00
  0.00000000E+00  0.00000000E+00  0.00000000E+00
  0.00000000E+00  0.00000000E+00  0.00000000E+00
  0.00000000E+00  0.00000000E+00  0.00000000E+00
  0.00000000E+00  0.00000000E+00  0.00000000E+00
  0.00000000E+00  0.00000000E+00  0.00000000E+00
  0.00000000E+00  0.00000000E+00  0.00000000E+00
  0.00000000E+00  0.00000000E+00  0.00000000E+00
  0.00000000E+00  0.00000000E+00  0.00000000E+00
  0.00000000E+00  0.00000000E+00  0.00000000E+00
  0.00000000E+00  0.00000000E+00  0.00000000E+00
  0.00000000E+00  0.00000000E+00  0.00000000E+00
  0.00000000E+00  0.00000000E+00  0.00000000E+00
  0.00000000E+00  0.00000000E+00  0.00000000E+00
  0.00000000E+00  0.00000000E+00  0.00000000E+00
  0.00000000E+00  0.00000000E+00  0.00000000E+00
  0.00000000E+00  0.00000000E+00  0.00000000E+00
  0.00000000E+00  0.00000000E+00  0.00000000E+00
  0.00000000E+00  0.00000000E+00  0.00000000E+00
  0.00000000E+00  0.00000000E+00  0.00000000E+00
  0.00000000E+00  0.00000000E+00  0.00000000E+00
  0.00000000E+00  0.00000000E+00  0.00000000E+00
  0.00000000E+00  0.00000000E+00  0.00000000E+00
  0.00000000E+00  0.00000000E+00  0.00000000E+00
  0.00000000E+00  0.00000000E+00  0.00000000E+00
  0.00000000E+00  0.00000000E+00  0.00000000E+00
  0.00000000E+00  0.00000000E+00  0.00000000E+00
  0.00000000E+00  0.00000000E+00  0.00000000E+00
  0.00000000E+00  0.00000000E+00  0.00000000E+00
  0.00000000E+00  0.00000000E+00  0.00000000E+00
  0.00000000E+00  0.00000000E+00  0.00000000E+00
  0.00000000E+00  0.00000000E+00  0.00000000E+00
  0.00000000E+00  0.00000000E+00  0.00000000E+00
  0.00000000E+00  0.00000000E+00  0.00000000E+00
  0.00000000E+00  0.00000000E+00  0.00000000E+00
  0.00000000E+00  0.00000000E+00  0.00000000E+00
  0.00000000E+00  0.00000000E+00  0.00000000E+00
  0.00000000E+00  0.00000000E+00  0.00000000E+00
  0.00000000E+00  0.00000000E+00  0.00000000E+00
  0.00000000E+00  0.00000000E+00  0.00000000E+00
  0.00000000E+00  0.00000000E+00  0.00000000E+00
  0.00000000E+00  0.00000000E+00  0.00000000E+00
  0.00000000E+00  0.00000000E+00  0.00000000E+00
  0.00000000E+00  0.00000000E+00  0.00000000E+00
  0.00000000E+00  0.00000000E+00  0.00000000E+00
  0.00000000E+00  0.00000000E+00  0.00000000E+00
  0.00000000E+00  0.00000000E+00  0.00000000E+00
  0.00000000E+00  0.00000000E+00  0.00000000E+00
  0.00000000E+00  0.00000000E+00  0.00000000E+00
  0.00000000E+00  0.00000000E+00  0.00000000E+00
