In36 Ga18 Cu36 Ag18 Se108               
   1.0000000000000000     
    16.1475776220687166   -0.0005666783575645   -7.2732261643805138
    -3.2575880206805317   15.8367446397187877   -7.2433872472944998
     0.0085090574156363    0.0099493566408402   21.6629676611577473
   In   Ga   Cu   Ag   Se
    36    18    36    18   108
Direct
  0.1688205614912235  0.4954184091908260  0.0021313290565885
  0.8322557954030358  0.5000116001289712  0.0045215015316629
  0.1701497263442917  0.8378696346077703  0.0031581891923054
  0.8330241231897944  0.8332106523802167  0.0068110423034327
  0.4998649123574950  0.1690892395547365  0.0012891134116302
  0.1614595227124553  0.4915840809721601  0.3292372125964391
  0.8350505169127587  0.5006289738115584  0.3321690824567867
  0.1584590432679960  0.8361738579407074  0.3322911343593447
  0.8301742732111350  0.8303322166589453  0.3299751106016586
  0.1654990306945194  0.1688321664949584  0.3301214834444934
  0.4967420547418868  0.1654660405637429  0.3296711079988057
  0.1671251109239691  0.4958544192705077  0.6649417132586066
  0.4986626429419303  0.4971921343901826  0.6670002154681782
  0.1624064454749359  0.8349988322731150  0.6695996137795532
  0.4999274104204048  0.8294683809914360  0.6643400206943966
  0.8340016576823714  0.8348020150133593  0.6657395035417224
  0.1675470139371029  0.1689846977906129  0.6669867134510525
  0.8339886046028369  0.1639287419629483  0.6689813440340799
  0.5831183950569212  0.4175208294517816  0.1655273905198484
  0.2568468862072564  0.7521507873650393  0.1668544273814732
  0.5830180683083910  0.7494978672051147  0.1642496903911308
  0.2484458214172633  0.4133786826514267  0.4976349545041501
  0.5807707967542726  0.4157288394044869  0.4997929930527931
  0.2447033289086917  0.7419702895485614  0.4978863899772392
  0.5858738059684256  0.7476177560098591  0.4955973836964631
  0.9155474894382962  0.7493803243745560  0.4999255970149363
  0.5850077692406828  0.0845918742818697  0.5003983544485493
  0.9149829302366044  0.0809831074585716  0.4960320187858045
  0.2585667238148801  0.4171810946363337  0.8377059285170247
  0.5799962740256817  0.4143887428598987  0.8349696760097061
  0.9148086799826629  0.4129650276705590  0.8328773822164308
  0.2532474257285671  0.7495971884608821  0.8347247711244208
  0.5793016723201418  0.7480069301186205  0.8355669409165927
  0.9159958639753683  0.7494095363845759  0.8311072325151301
  0.5866364225507610  0.0893741388400500  0.8329643362694199
  0.9198948737648251  0.0896539667292089  0.8390972938859562
  0.5032481764213728  0.4969139220848291  0.0011646284836289
  0.5011649320142766  0.8327165261217289  0.0020494799330990
  0.1701772525076493  0.1706699038484700  0.0015923988899331
  0.8362318693433295  0.1767225163962891  0.0054751862558220
  0.4985657342335372  0.4938109171707055  0.3306059950116094
  0.5092301749655590  0.8357274625161608  0.3329097724982546
  0.8339660452982969  0.1654029456282586  0.3297199839612901
  0.8310605552409598  0.5009852381945521  0.6616032778740077
  0.5014887293821388  0.1728926821269567  0.6667467402150180
  0.2520060090354903  0.4052166733855529  0.1653110224993668
  0.9125914904529537  0.4107095807076320  0.1662705656396355
  0.9091049882131728  0.7495878638864468  0.1675321030192620
  0.2518459514202434  0.0907170581917640  0.1653704301041827
  0.5863719145506252  0.0809759090097515  0.1678271304174501
  0.9144167180653398  0.0918411085730142  0.1678617978812653
  0.9180360453519398  0.4187104431284254  0.4984387833592763
  0.2478897817693948  0.0913828409456556  0.5001379735385854
  0.2472632943224724  0.0864185189834004  0.8356438058098803
  0.0007365298569866  0.3329210508452931  0.0036316673389223
  0.3314453181285018  0.3276624106105146  0.9975976885635305
  0.6687456332227200  0.3347856564424490  0.0034727867072846
  0.0002639218067841  0.6683552071845895  0.0055608391006174
  0.3416859115826583  0.6665131937900952  0.0011530362959817
  0.6646277646065144  0.6670705357917370  0.0058525934839224
  0.9938832346474769  0.3286926278372775  0.3315554100501643
  0.3325264316842649  0.3326232220872427  0.3296048223639190
  0.9900797056246802  0.6587532726453063  0.3245728476419458
  0.6675035446240329  0.6649433559678997  0.3367269437485518
  0.9954088285928293  0.0071841344707764  0.3298962642781760
  0.6646073832029629  0.9974633183179975  0.3287119896940567
  0.3340785002995261  0.3295105402537715  0.6640171344533243
  0.6656660716470597  0.3321706878725337  0.6678873439555630
  0.9969753744410568  0.6615712703705228  0.6618500436294568
  0.6646756807317402  0.6634432799933876  0.6616278427634370
  0.9987374575002761  0.0060426396563145  0.6716843396818888
  0.6685797088524694  0.0030576767248718  0.6643018754203212
  0.7486526860893150  0.5789681925677570  0.1655527285500114
  0.4238271243335632  0.9196482695562267  0.1657854467232411
  0.7538158524057366  0.9225403241073096  0.1695278005038290
  0.0798587757699849  0.2501255833529896  0.1642771203416871
  0.4134016960225750  0.2506176086811038  0.1659450911642821
  0.7517123640863659  0.2494195564281014  0.1665487865120028
  0.0764306953584253  0.5767536071533712  0.4956108234128820
  0.4207553970279321  0.5775802423727825  0.4953694558507422
  0.7474044145630501  0.5805947668638822  0.4996942037102841
  0.7484877594444015  0.9170900351838256  0.4972206351602111
  0.0785799187405658  0.2487698815501318  0.4918822050861138
  0.4142443192489864  0.2523709069890572  0.5023484079784808
  0.4220790043806488  0.5834502705083011  0.8410538793258269
  0.0866167871507244  0.9197438950773176  0.8316388992701249
  0.4153878746848036  0.9211771933579129  0.8366043738080791
  0.0900387863549668  0.2439275719637592  0.8389086085374942
  0.4174120702919168  0.2541267742057300  0.8381463346781644
  0.7483354974848808  0.2513202061615090  0.8358701554894736
  0.0063571666720676  0.0034293669964285  0.0044867714497983
  0.3353590644609241  0.0043200539960537  0.0019124166620017
  0.6669628140226180  0.0071316342096992  0.0076192662798391
  0.6721056441307880  0.3311480151578436  0.3258015220121280
  0.3370790734269420  0.6630018897472567  0.3336203715092054
  0.3352037035321018  0.9964899156114413  0.3278134740258096
  0.9944166697065455  0.3303069714927886  0.6660990212731548
  0.3334659370589890  0.6653979860613077  0.6657923738147815
  0.3386074031592159  0.0073123978070484  0.6756804028890784
  0.0802938012167971  0.5800330962121620  0.1653721227049800
  0.4217348449228595  0.5813477171977155  0.1693698430627109
  0.0807947503089181  0.9167343208896028  0.1689404954172105
  0.0840525796871461  0.9133160347085862  0.4979129703981471
  0.4148677619187566  0.9219165583849787  0.4978437986483897
  0.7560126348613849  0.2480192408531181  0.4984055473460600
  0.0808615913971238  0.5878115666854455  0.8388956009238342
  0.7521673006641549  0.5798348702892611  0.8318152340074576
  0.7493479723774641  0.9217031332463321  0.8348538683422362
  0.1277052657153348  0.4468549701370321  0.0873281051906361
  0.4506833665313223  0.4492897748589257  0.0714445469795990
  0.7879633299528948  0.4545551113021844  0.0902154627178291
  0.1191967260584477  0.7866457362287207  0.0809342938957798
  0.4511414217084493  0.7944864702867989  0.0792945800527178
  0.7829178552565637  0.7904462018146745  0.0907798559449944
  0.1322649248599674  0.1358448405022301  0.0869941736823492
  0.4667077263014505  0.1334288610617946  0.0967313828802929
  0.7960704684975966  0.1357507488005041  0.0869564510187928
  0.1104883790817794  0.4523843517009993  0.4145493008332508
  0.4500754384939754  0.4560096880798099  0.4091616656196209
  0.7958860002966688  0.4639107767593771  0.4240316249170206
  0.1113882978034013  0.7758132667159359  0.4066161572782363
  0.4615765386519044  0.7969517537933939  0.4099985496985212
  0.7808312697884006  0.7910081050724074  0.4162609721363850
  0.1192303907290437  0.1252221360994668  0.4161739707206351
  0.4549870735862029  0.1338814414797298  0.4219437601225735
  0.7848551098405849  0.1177963970384752  0.4025711162087759
  0.1262976516574170  0.4584037601354893  0.7542209120518208
  0.4462250745682539  0.4578855016079046  0.7511493000849470
  0.7870695820568869  0.4505900804773262  0.7369992303652140
  0.1133292044025893  0.7877513953400168  0.7511967352358511
  0.4538187719130704  0.8018903510459054  0.7561476777431508
  0.7808598238077806  0.7862866879393877  0.7442912210100303
  0.1218002781783767  0.1232127771028999  0.7530500968044080
  0.4609476679603901  0.1429012628602635  0.7529907951981727
  0.7824659353950025  0.1267516074643069  0.7538315015576913
  0.2982635779770817  0.6245603258029817  0.0777856932626548
  0.6286434882535374  0.6156559500624610  0.0817523119521084
  0.9562008104385953  0.6362115223639009  0.0860427265286035
  0.3004940706387984  0.9671261350850173  0.0957546559906461
  0.6246121915656389  0.9547875184671781  0.0890020391571298
  0.9543631206505125  0.9698298318300544  0.0900820333810941
  0.2966477044678371  0.2886675179570233  0.0811708612178137
  0.6368050985630589  0.2917840717304472  0.0853693314321333
  0.9613060776203071  0.2950133541671462  0.0856947151775245
  0.2968286190598022  0.6156819952148780  0.4188895895988693
  0.6273446328518162  0.6123747669967230  0.4099917615023472
  0.9678013210997847  0.6263170970768925  0.4155647009793455
  0.2841286152919693  0.9691401057321514  0.4173542047609544
  0.6324275281628431  0.9570866500089608  0.4124782202537247
  0.9603479330850746  0.9583730686370231  0.4073200528972336
  0.3025573262638659  0.2918174598488292  0.4143783825505309
  0.6262033698359346  0.2919856588945606  0.4131744509979072
  0.9562184066050463  0.2912077854722384  0.4146523800511801
  0.3029822574391829  0.6192668852660148  0.7564051722928866
  0.6264757553365925  0.6276613013818917  0.7447141034538944
  0.9544549580250461  0.6194412379828265  0.7397413232547905
  0.2943748607323826  0.9642146326713501  0.7619565375150188
  0.6262248286881302  0.9617624658377366  0.7414342125629929
  0.9676940476392204  0.9620696090245957  0.7531873999740597
  0.3047193646021356  0.2917606127439640  0.7504736001575409
  0.6305629347907242  0.2896239711990560  0.7489113056883951
  0.9709536558167642  0.2850600030093133  0.7590019167454543
  0.2079297944602772  0.3617971086084353  0.2438944409541008
  0.5330089531427760  0.3707435715999452  0.2470171104953849
  0.8745011647410124  0.3654585347498482  0.2465708597576466
  0.2092768475453255  0.7105490658643348  0.2507694987250204
  0.5508349311324707  0.7108665633860696  0.2589797890650090
  0.8709686054347330  0.6963511268437657  0.2430840192221169
  0.2099180138314125  0.0447733876268828  0.2414588383725160
  0.5454337697429423  0.0361122825757718  0.2466128086362147
  0.8751354655330417  0.0444006298620891  0.2474044795986430
  0.2073155117540395  0.3600949814213408  0.5803156027650331
  0.5414661797737850  0.3636958059299289  0.5843975983831058
  0.8763560309698306  0.3845908717172293  0.5814807206086172
  0.1947183729864861  0.6980269835105517  0.5798526071753400
  0.5413341371140064  0.6957679908830059  0.5782537547203574
  0.8719485101957787  0.6968717652579244  0.5814493614938172
  0.2119408070424882  0.0438949820826409  0.5783971998798307
  0.5462885217524800  0.0486672345137649  0.5929646806293078
  0.8745171114557877  0.0312510508554311  0.5817976810345726
  0.2098770778393870  0.3630680033403664  0.9161766859373728
  0.5420026900751012  0.3696450125135868  0.9241763453728353
  0.8747099524960973  0.3655058123490278  0.9198103049065196
  0.2192579350121235  0.7068000805902557  0.9249833475702758
  0.5414392937083932  0.7045864579828844  0.9255646586275290
  0.8843322767106230  0.7078113760545577  0.9239794086986493
  0.2027406892995742  0.0452263369746149  0.9146366697792345
  0.5357893945523315  0.0375136492989725  0.9112121315367716
  0.8744858483147766  0.0536848266912457  0.9270641225509237
  0.0281843483565467  0.5364253783515522  0.2470166711889306
  0.3733186418824985  0.5273583006615326  0.2471033892719063
  0.7078375833779234  0.5527984422802064  0.2511131445664461
  0.0241029368781227  0.8772404969635232  0.2490651549770249
  0.3920171876248020  0.8771139254181435  0.2485948552991957
  0.7078749775124393  0.8842082334786028  0.2473580765200722
  0.0348494785228368  0.2153717466118437  0.2453980598601646
  0.3698912964739165  0.2144204357240511  0.2452716533001293
  0.7125835362603397  0.1992457152285212  0.2416097291368828
  0.0374927863633800  0.5435021801063655  0.5787184069128486
  0.3776190014841561  0.5425488416064042  0.5755638303211512
  0.7106191141975415  0.5476478691582756  0.5848107953006974
  0.0367297870852781  0.8870963702565149  0.5894927886958357
  0.3699282238935808  0.8738676322548500  0.5810351447475028
  0.7083387545222664  0.8863726805098509  0.5815169280419568
  0.0421807376701437  0.2119753989634958  0.5755769068278767
  0.3754101415698017  0.2121166272035424  0.5824730942038912
  0.7105550269587226  0.2175019110891654  0.5887060947917035
  0.0377773878100314  0.5477897479785199  0.9263820994453980
  0.3876004284953893  0.5487847323276895  0.9256702499670055
  0.7040221635296646  0.5497128773769617  0.9223237247508465
  0.0454491648571533  0.8801450342579855  0.9108949995203020
  0.3862323461906669  0.8778943610697922  0.9191022807252267
  0.7072183847076374  0.8764646879017945  0.9197552746350652
  0.0509074866888994  0.2195814009123751  0.9260391983318357
  0.3676933599768688  0.2106440184616218  0.9119528153777026
  0.7160816272820441  0.2210929457526731  0.9249299896593470

  0.00000000E+00  0.00000000E+00  0.00000000E+00
  0.00000000E+00  0.00000000E+00  0.00000000E+00
  0.00000000E+00  0.00000000E+00  0.00000000E+00
  0.00000000E+00  0.00000000E+00  0.00000000E+00
  0.00000000E+00  0.00000000E+00  0.00000000E+00
  0.00000000E+00  0.00000000E+00  0.00000000E+00
  0.00000000E+00  0.00000000E+00  0.00000000E+00
  0.00000000E+00  0.00000000E+00  0.00000000E+00
  0.00000000E+00  0.00000000E+00  0.00000000E+00
  0.00000000E+00  0.00000000E+00  0.00000000E+00
  0.00000000E+00  0.00000000E+00  0.00000000E+00
  0.00000000E+00  0.00000000E+00  0.00000000E+00
  0.00000000E+00  0.00000000E+00  0.00000000E+00
  0.00000000E+00  0.00000000E+00  0.00000000E+00
  0.00000000E+00  0.00000000E+00  0.00000000E+00
  0.00000000E+00  0.00000000E+00  0.00000000E+00
  0.00000000E+00  0.00000000E+00  0.00000000E+00
  0.00000000E+00  0.00000000E+00  0.00000000E+00
  0.00000000E+00  0.00000000E+00  0.00000000E+00
  0.00000000E+00  0.00000000E+00  0.00000000E+00
  0.00000000E+00  0.00000000E+00  0.00000000E+00
  0.00000000E+00  0.00000000E+00  0.00000000E+00
  0.00000000E+00  0.00000000E+00  0.00000000E+00
  0.00000000E+00  0.00000000E+00  0.00000000E+00
  0.00000000E+00  0.00000000E+00  0.00000000E+00
  0.00000000E+00  0.00000000E+00  0.00000000E+00
  0.00000000E+00  0.00000000E+00  0.00000000E+00
  0.00000000E+00  0.00000000E+00  0.00000000E+00
  0.00000000E+00  0.00000000E+00  0.00000000E+00
  0.00000000E+00  0.00000000E+00  0.00000000E+00
  0.00000000E+00  0.00000000E+00  0.00000000E+00
  0.00000000E+00  0.00000000E+00  0.00000000E+00
  0.00000000E+00  0.00000000E+00  0.00000000E+00
  0.00000000E+00  0.00000000E+00  0.00000000E+00
  0.00000000E+00  0.00000000E+00  0.00000000E+00
  0.00000000E+00  0.00000000E+00  0.00000000E+00
  0.00000000E+00  0.00000000E+00  0.00000000E+00
  0.00000000E+00  0.00000000E+00  0.00000000E+00
  0.00000000E+00  0.00000000E+00  0.00000000E+00
  0.00000000E+00  0.00000000E+00  0.00000000E+00
  0.00000000E+00  0.00000000E+00  0.00000000E+00
  0.00000000E+00  0.00000000E+00  0.00000000E+00
  0.00000000E+00  0.00000000E+00  0.00000000E+00
  0.00000000E+00  0.00000000E+00  0.00000000E+00
  0.00000000E+00  0.00000000E+00  0.00000000E+00
  0.00000000E+00  0.00000000E+00  0.00000000E+00
  0.00000000E+00  0.00000000E+00  0.00000000E+00
  0.00000000E+00  0.00000000E+00  0.00000000E+00
  0.00000000E+00  0.00000000E+00  0.00000000E+00
  0.00000000E+00  0.00000000E+00  0.00000000E+00
  0.00000000E+00  0.00000000E+00  0.00000000E+00
  0.00000000E+00  0.00000000E+00  0.00000000E+00
  0.00000000E+00  0.00000000E+00  0.00000000E+00
  0.00000000E+00  0.00000000E+00  0.00000000E+00
  0.00000000E+00  0.00000000E+00  0.00000000E+00
  0.00000000E+00  0.00000000E+00  0.00000000E+00
  0.00000000E+00  0.00000000E+00  0.00000000E+00
  0.00000000E+00  0.00000000E+00  0.00000000E+00
  0.00000000E+00  0.00000000E+00  0.00000000E+00
  0.00000000E+00  0.00000000E+00  0.00000000E+00
  0.00000000E+00  0.00000000E+00  0.00000000E+00
  0.00000000E+00  0.00000000E+00  0.00000000E+00
  0.00000000E+00  0.00000000E+00  0.00000000E+00
  0.00000000E+00  0.00000000E+00  0.00000000E+00
  0.00000000E+00  0.00000000E+00  0.00000000E+00
  0.00000000E+00  0.00000000E+00  0.00000000E+00
  0.00000000E+00  0.00000000E+00  0.00000000E+00
  0.00000000E+00  0.00000000E+00  0.00000000E+00
  0.00000000E+00  0.00000000E+00  0.00000000E+00
  0.00000000E+00  0.00000000E+00  0.00000000E+00
  0.00000000E+00  0.00000000E+00  0.00000000E+00
  0.00000000E+00  0.00000000E+00  0.00000000E+00
  0.00000000E+00  0.00000000E+00  0.00000000E+00
  0.00000000E+00  0.00000000E+00  0.00000000E+00
  0.00000000E+00  0.00000000E+00  0.00000000E+00
  0.00000000E+00  0.00000000E+00  0.00000000E+00
  0.00000000E+00  0.00000000E+00  0.00000000E+00
  0.00000000E+00  0.00000000E+00  0.00000000E+00
  0.00000000E+00  0.00000000E+00  0.00000000E+00
  0.00000000E+00  0.00000000E+00  0.00000000E+00
  0.00000000E+00  0.00000000E+00  0.00000000E+00
  0.00000000E+00  0.00000000E+00  0.00000000E+00
  0.00000000E+00  0.00000000E+00  0.00000000E+00
  0.00000000E+00  0.00000000E+00  0.00000000E+00
  0.00000000E+00  0.00000000E+00  0.00000000E+00
  0.00000000E+00  0.00000000E+00  0.00000000E+00
  0.00000000E+00  0.00000000E+00  0.00000000E+00
  0.00000000E+00  0.00000000E+00  0.00000000E+00
  0.00000000E+00  0.00000000E+00  0.00000000E+00
  0.00000000E+00  0.00000000E+00  0.00000000E+00
  0.00000000E+00  0.00000000E+00  0.00000000E+00
  0.00000000E+00  0.00000000E+00  0.00000000E+00
  0.00000000E+00  0.00000000E+00  0.00000000E+00
  0.00000000E+00  0.00000000E+00  0.00000000E+00
  0.00000000E+00  0.00000000E+00  0.00000000E+00
  0.00000000E+00  0.00000000E+00  0.00000000E+00
  0.00000000E+00  0.00000000E+00  0.00000000E+00
  0.00000000E+00  0.00000000E+00  0.00000000E+00
  0.00000000E+00  0.00000000E+00  0.00000000E+00
  0.00000000E+00  0.00000000E+00  0.00000000E+00
  0.00000000E+00  0.00000000E+00  0.00000000E+00
  0.00000000E+00  0.00000000E+00  0.00000000E+00
  0.00000000E+00  0.00000000E+00  0.00000000E+00
  0.00000000E+00  0.00000000E+00  0.00000000E+00
  0.00000000E+00  0.00000000E+00  0.00000000E+00
  0.00000000E+00  0.00000000E+00  0.00000000E+00
  0.00000000E+00  0.00000000E+00  0.00000000E+00
  0.00000000E+00  0.00000000E+00  0.00000000E+00
  0.00000000E+00  0.00000000E+00  0.00000000E+00
  0.00000000E+00  0.00000000E+00  0.00000000E+00
  0.00000000E+00  0.00000000E+00  0.00000000E+00
  0.00000000E+00  0.00000000E+00  0.00000000E+00
  0.00000000E+00  0.00000000E+00  0.00000000E+00
  0.00000000E+00  0.00000000E+00  0.00000000E+00
  0.00000000E+00  0.00000000E+00  0.00000000E+00
  0.00000000E+00  0.00000000E+00  0.00000000E+00
  0.00000000E+00  0.00000000E+00  0.00000000E+00
  0.00000000E+00  0.00000000E+00  0.00000000E+00
  0.00000000E+00  0.00000000E+00  0.00000000E+00
  0.00000000E+00  0.00000000E+00  0.00000000E+00
  0.00000000E+00  0.00000000E+00  0.00000000E+00
  0.00000000E+00  0.00000000E+00  0.00000000E+00
  0.00000000E+00  0.00000000E+00  0.00000000E+00
  0.00000000E+00  0.00000000E+00  0.00000000E+00
  0.00000000E+00  0.00000000E+00  0.00000000E+00
  0.00000000E+00  0.00000000E+00  0.00000000E+00
  0.00000000E+00  0.00000000E+00  0.00000000E+00
  0.00000000E+00  0.00000000E+00  0.00000000E+00
  0.00000000E+00  0.00000000E+00  0.00000000E+00
  0.00000000E+00  0.00000000E+00  0.00000000E+00
  0.00000000E+00  0.00000000E+00  0.00000000E+00
  0.00000000E+00  0.00000000E+00  0.00000000E+00
  0.00000000E+00  0.00000000E+00  0.00000000E+00
  0.00000000E+00  0.00000000E+00  0.00000000E+00
  0.00000000E+00  0.00000000E+00  0.00000000E+00
  0.00000000E+00  0.00000000E+00  0.00000000E+00
  0.00000000E+00  0.00000000E+00  0.00000000E+00
  0.00000000E+00  0.00000000E+00  0.00000000E+00
  0.00000000E+00  0.00000000E+00  0.00000000E+00
  0.00000000E+00  0.00000000E+00  0.00000000E+00
  0.00000000E+00  0.00000000E+00  0.00000000E+00
  0.00000000E+00  0.00000000E+00  0.00000000E+00
  0.00000000E+00  0.00000000E+00  0.00000000E+00
  0.00000000E+00  0.00000000E+00  0.00000000E+00
  0.00000000E+00  0.00000000E+00  0.00000000E+00
  0.00000000E+00  0.00000000E+00  0.00000000E+00
  0.00000000E+00  0.00000000E+00  0.00000000E+00
  0.00000000E+00  0.00000000E+00  0.00000000E+00
  0.00000000E+00  0.00000000E+00  0.00000000E+00
  0.00000000E+00  0.00000000E+00  0.00000000E+00
  0.00000000E+00  0.00000000E+00  0.00000000E+00
  0.00000000E+00  0.00000000E+00  0.00000000E+00
  0.00000000E+00  0.00000000E+00  0.00000000E+00
  0.00000000E+00  0.00000000E+00  0.00000000E+00
  0.00000000E+00  0.00000000E+00  0.00000000E+00
  0.00000000E+00  0.00000000E+00  0.00000000E+00
  0.00000000E+00  0.00000000E+00  0.00000000E+00
  0.00000000E+00  0.00000000E+00  0.00000000E+00
  0.00000000E+00  0.00000000E+00  0.00000000E+00
  0.00000000E+00  0.00000000E+00  0.00000000E+00
  0.00000000E+00  0.00000000E+00  0.00000000E+00
  0.00000000E+00  0.00000000E+00  0.00000000E+00
  0.00000000E+00  0.00000000E+00  0.00000000E+00
  0.00000000E+00  0.00000000E+00  0.00000000E+00
  0.00000000E+00  0.00000000E+00  0.00000000E+00
  0.00000000E+00  0.00000000E+00  0.00000000E+00
  0.00000000E+00  0.00000000E+00  0.00000000E+00
  0.00000000E+00  0.00000000E+00  0.00000000E+00
  0.00000000E+00  0.00000000E+00  0.00000000E+00
  0.00000000E+00  0.00000000E+00  0.00000000E+00
  0.00000000E+00  0.00000000E+00  0.00000000E+00
  0.00000000E+00  0.00000000E+00  0.00000000E+00
  0.00000000E+00  0.00000000E+00  0.00000000E+00
  0.00000000E+00  0.00000000E+00  0.00000000E+00
  0.00000000E+00  0.00000000E+00  0.00000000E+00
  0.00000000E+00  0.00000000E+00  0.00000000E+00
  0.00000000E+00  0.00000000E+00  0.00000000E+00
  0.00000000E+00  0.00000000E+00  0.00000000E+00
  0.00000000E+00  0.00000000E+00  0.00000000E+00
  0.00000000E+00  0.00000000E+00  0.00000000E+00
  0.00000000E+00  0.00000000E+00  0.00000000E+00
  0.00000000E+00  0.00000000E+00  0.00000000E+00
  0.00000000E+00  0.00000000E+00  0.00000000E+00
  0.00000000E+00  0.00000000E+00  0.00000000E+00
  0.00000000E+00  0.00000000E+00  0.00000000E+00
  0.00000000E+00  0.00000000E+00  0.00000000E+00
  0.00000000E+00  0.00000000E+00  0.00000000E+00
  0.00000000E+00  0.00000000E+00  0.00000000E+00
  0.00000000E+00  0.00000000E+00  0.00000000E+00
  0.00000000E+00  0.00000000E+00  0.00000000E+00
  0.00000000E+00  0.00000000E+00  0.00000000E+00
  0.00000000E+00  0.00000000E+00  0.00000000E+00
  0.00000000E+00  0.00000000E+00  0.00000000E+00
  0.00000000E+00  0.00000000E+00  0.00000000E+00
  0.00000000E+00  0.00000000E+00  0.00000000E+00
  0.00000000E+00  0.00000000E+00  0.00000000E+00
  0.00000000E+00  0.00000000E+00  0.00000000E+00
  0.00000000E+00  0.00000000E+00  0.00000000E+00
  0.00000000E+00  0.00000000E+00  0.00000000E+00
  0.00000000E+00  0.00000000E+00  0.00000000E+00
  0.00000000E+00  0.00000000E+00  0.00000000E+00
  0.00000000E+00  0.00000000E+00  0.00000000E+00
  0.00000000E+00  0.00000000E+00  0.00000000E+00
  0.00000000E+00  0.00000000E+00  0.00000000E+00
  0.00000000E+00  0.00000000E+00  0.00000000E+00
  0.00000000E+00  0.00000000E+00  0.00000000E+00
  0.00000000E+00  0.00000000E+00  0.00000000E+00
  0.00000000E+00  0.00000000E+00  0.00000000E+00
  0.00000000E+00  0.00000000E+00  0.00000000E+00
  0.00000000E+00  0.00000000E+00  0.00000000E+00
  0.00000000E+00  0.00000000E+00  0.00000000E+00
  0.00000000E+00  0.00000000E+00  0.00000000E+00
  0.00000000E+00  0.00000000E+00  0.00000000E+00
  0.00000000E+00  0.00000000E+00  0.00000000E+00
  0.00000000E+00  0.00000000E+00  0.00000000E+00
  0.00000000E+00  0.00000000E+00  0.00000000E+00
