In12 Ga42 Cu48 Ag6 Se108                
   1.0000000000000000     
    15.7447306320462967    0.0219145395661776   -7.0921201718554707
    -3.2214528746318778   15.4182765406755191   -7.0763305132795749
     0.0250492358062304    0.0016074756744425   21.0593902938385966
   In   Ga   Cu   Ag   Se
    12    42    48     6   108
Direct
  0.8295973294550691  0.5000316793137216  0.9988842005204930
  0.1663851133968635  0.8338524939733176  0.9999813805460889
  0.8327912361101042  0.8290567261582567  0.9994684332041786
  0.1718922466496693  0.1659862605850151  0.0001433200558196
  0.1615625444465891  0.5006490583506888  0.3307516115644873
  0.8334630309187432  0.8336812145822421  0.6675548690967474
  0.8316577401595993  0.1677322731728808  0.6649408862830839
  0.5809699313928647  0.0812906654073728  0.1656293469015182
  0.2505986981792532  0.4135217235926660  0.5007981068567275
  0.9193422781222438  0.7515834286273702  0.4987129863879858
  0.2531443299962177  0.7491813150098565  0.8336169784399416
  0.9152814843231027  0.0871310074476028  0.8361829696149528
  0.1681273894355186  0.5008460101884680  0.0009784154030044
  0.5014374971269646  0.4998932147483117  0.9999130706143475
  0.5009037635327118  0.8294060463738617  0.0001119492900301
  0.4968207843770713  0.1711834677598176  0.9978748226772467
  0.8314009098010189  0.1693439202911904  0.0015610415776237
  0.5018124961593387  0.4976293268291414  0.3311643240427884
  0.8350693260494850  0.4984988590478352  0.3316444209945502
  0.1645373512166586  0.8355099521177181  0.3336482091803887
  0.5012833617430701  0.8361581031131635  0.3334454387551631
  0.8314978492523792  0.8342546657532566  0.3324688259961590
  0.1699445618410138  0.1614112879749001  0.3317338402836967
  0.5001701284663653  0.1655660913394570  0.3346714442292438
  0.8322488862225299  0.1661549111029075  0.3336433500607754
  0.1684823055836375  0.4980623567324969  0.6681240761121927
  0.5006355272870877  0.4976039929641516  0.6683681889053119
  0.8334439039631505  0.4971861872851662  0.6673812550511258
  0.1681576156224054  0.8363265423289619  0.6673868300361434
  0.4995706160904945  0.8369808399109218  0.6681458777489553
  0.1676138757858467  0.1666330113040857  0.6682993273425879
  0.4993419838169189  0.1695341860162571  0.6664474138827288
  0.2538488377942301  0.4181785842840142  0.1655814683072734
  0.5851401630444713  0.4176786733652520  0.1669351955978371
  0.9103015866175141  0.4180241345962159  0.1638617902173181
  0.2491818867841786  0.7503240390630523  0.1676305200600794
  0.5824977433047920  0.7505644766055966  0.1664823919362775
  0.9172069613366745  0.7499854888516566  0.1695896133428718
  0.2552193313091706  0.0804798824420061  0.1676231251587410
  0.9189441619373611  0.0846260717085840  0.1708165864193276
  0.5838392863593356  0.4117180774079685  0.5002041174479217
  0.9170457307060076  0.4160331853515018  0.5000301279885662
  0.2478261349455053  0.7562739303612958  0.5035023683799054
  0.5827135315241563  0.7564368901152463  0.4998122327505001
  0.2527586099582138  0.0816029221956569  0.5001341598648139
  0.5799924089092912  0.0842536493758814  0.4982652428700831
  0.9158259431799038  0.0798314880542321  0.4991276479181863
  0.2511983440350605  0.4174500821106264  0.8339880044270629
  0.5811645970683088  0.4162830669327704  0.8323564939478345
  0.9180906119621923  0.4168148265906666  0.8338457399734693
  0.5783004526598461  0.7457396219784229  0.8302007210519022
  0.9151167513160416  0.7459199449379454  0.8308481476056571
  0.2527039557278670  0.0823567098002940  0.8319359356000859
  0.5812736198465061  0.0876695438194091  0.8320787975684780
  0.0018137265330154  0.3407444169429823  0.0015045170416954
  0.3364602535445940  0.3373401200464130  0.0002138785883616
  0.6628636958584337  0.3320254117935306  0.9993442579835801
  0.0031361179625762  0.6661009949607575  0.0003028593992127
  0.3364078483219899  0.6634161753815633  0.0023946590610819
  0.6619739540472764  0.6649544606609084  0.9994990523003082
  0.9965539144087785  0.9949136553525335  0.9997000950103825
  0.3365616428609854  0.0012543097286368  0.9997217081436887
  0.9946350058785995  0.3323242201546961  0.3317401252702794
  0.3376780599318892  0.3270006180725247  0.3300691446156847
  0.6679747192671144  0.3324809568619003  0.3341527912016460
  0.9998477061302324  0.6680353811568480  0.3318668625904309
  0.6630595971077184  0.6668222258927941  0.3291173433896404
  0.9959963847095494  0.9986454852947233  0.3322580812208571
  0.3334470423325868  0.9977704373221385  0.3331692251373681
  0.6694797397801153  0.0013606229169554  0.3363046482553500
  0.9995287731348057  0.3375874957484868  0.6673199908782763
  0.3370491665531361  0.3298749699226136  0.6706786651605370
  0.6635484926856776  0.3339291683101990  0.6659288749176397
  0.0052873345682229  0.6610087207282689  0.6689298737543155
  0.3323250281794543  0.6702572772626354  0.6670743326241890
  0.6659221168425660  0.6657784693075328  0.6700077677264957
  0.0050764067487918  0.0045942635841740  0.6666919334322401
  0.3337917834469124  0.0030063399141298  0.6668652476239174
  0.6584997530180630  0.9980070773100422  0.6629423111240911
  0.0815515198301071  0.5835421166020112  0.1627749287587150
  0.4184277727386387  0.5840712611672956  0.1641231363917157
  0.7481391053857465  0.5871159715869396  0.1703237480154272
  0.0844126338302829  0.9173937157456038  0.1714051108159538
  0.4181754850764179  0.9137894312468617  0.1681347607717569
  0.7542607781517674  0.9137355001076060  0.1719237435588141
  0.4220104540384071  0.2545923373207231  0.1697155584075389
  0.7490399556025196  0.2536818042105864  0.1680059310427922
  0.0838922295992859  0.5855321204228190  0.5038020076639356
  0.0858225285286736  0.9201522705207239  0.4986317985253166
  0.4155359095778195  0.9215138379732863  0.5032128908960445
  0.7464034176792538  0.9170977308354935  0.4959147479220505
  0.4161760622106598  0.2472557695326572  0.4995229880821057
  0.7500636741611046  0.2495498278144908  0.4975655115365640
  0.0799194467515960  0.5784653917248335  0.8321535475721831
  0.4171579402167040  0.5792431177093107  0.8328945818845384
  0.7487356214567384  0.5794946834328556  0.8289787062691971
  0.0832390318500487  0.9148445286250890  0.8307240380473999
  0.4170587583327006  0.9168117389167065  0.8318712776843213
  0.7461339259676762  0.9190942871921663  0.8314721268016427
  0.0889749181883559  0.2542409540998349  0.8345831283612810
  0.4169803596414923  0.2511430663926575  0.8332526413449628
  0.7451017447975730  0.2512972087696284  0.8336881989159011
  0.6655836952358811  0.0038607848290440  0.0001473326419017
  0.3355634494298840  0.6680524438992776  0.3323263597476043
  0.0801942519764509  0.2493641946021370  0.1651565156800885
  0.4274583844835007  0.5838105465166095  0.5025117486971524
  0.7416912779454279  0.5799991095032411  0.4970729675707659
  0.0802424518994798  0.2410439833778995  0.4979082066822258
  0.1260453612180115  0.4610975921778859  0.0852228441307759
  0.4595142476107767  0.4596982658463773  0.0835668543649959
  0.7811620675109126  0.4583093222915764  0.0867218690148732
  0.1210745295862452  0.7916679517177059  0.0888793880790431
  0.4554505251024779  0.7898728677961344  0.0829651861138743
  0.7868253833109335  0.7863110562808799  0.0881831706270901
  0.1251437969305798  0.1117323709965277  0.0819505204935993
  0.4509255272491899  0.1301594132266430  0.0786742581631685
  0.7983094062038916  0.1346192153988213  0.0916849564197761
  0.1130937543119330  0.4568834501952352  0.4171821429334699
  0.4612648759226730  0.4486310231950768  0.4108422217838665
  0.7932675450586686  0.4523988183337622  0.4122017868808356
  0.1213979696602649  0.7932796839722300  0.4163553807425941
  0.4620694466644082  0.8043851592396223  0.4220228217562507
  0.7820178437287097  0.7927506317797679  0.4110940895519235
  0.1271452146063581  0.1135039481814388  0.4104086427385170
  0.4535541806704089  0.1237305951168395  0.4154878743753372
  0.7910757962681387  0.1247555750197122  0.4176249989108740
  0.1241579413433627  0.4581003968323500  0.7508537870717475
  0.4556567877690867  0.4552676944223464  0.7497612683725308
  0.7899114278743227  0.4545753927373184  0.7492092705529174
  0.1185764951426620  0.7917640773630339  0.7449674530531354
  0.4552161575515896  0.7924486485738100  0.7492186828224803
  0.7867312647579681  0.7897347035187536  0.7551225845810094
  0.1266323336860466  0.1275895323029204  0.7529905118923779
  0.4554149808551102  0.1280630788924384  0.7487380166332613
  0.7762982147811641  0.1243274741492968  0.7480517302390979
  0.2935201828499956  0.6257055926415660  0.0851390201178930
  0.6262866845389112  0.6255488188402225  0.0844931672276275
  0.9632957145970238  0.6316452051702228  0.0856416717408095
  0.3040698641530142  0.9624459114183352  0.0866044670575548
  0.6295892224444231  0.9465351501093835  0.0849568450640703
  0.9659903790984572  0.9629385937763644  0.0902735313595855
  0.3040492230201366  0.2993042505856565  0.0875285320551384
  0.6259659668970272  0.2917765976555202  0.0834078354693801
  0.9519486058896831  0.2973596217598100  0.0772976828165355
  0.2913833360192655  0.6340901666547794  0.4248260846884904
  0.6172344988794976  0.6304317451052341  0.4108571795104083
  0.9641811355558900  0.6181374788563332  0.4113556388886224
  0.2937785479380608  0.9568146753194924  0.4162673664157595
  0.6259397004731184  0.9613763703375184  0.4167885255093680
  0.9595826121212170  0.9576263602322683  0.4159052630379563
  0.2965913124942219  0.2833426851724852  0.4103940127704035
  0.6272274029215197  0.2898092326824795  0.4153403403951188
  0.9539025279885820  0.2919010904932193  0.4131262529027708
  0.2974154913991853  0.6171966751541902  0.7452284831663079
  0.6247470397649977  0.6226104008922348  0.7499403132368343
  0.9602018640169021  0.6216157855632432  0.7492959770969421
  0.2959047870807154  0.9587403618582400  0.7490583264458621
  0.6245351411725224  0.9618659475895370  0.7504407656910388
  0.9690807776984656  0.9627441829674410  0.7500022583887329
  0.2933746088089322  0.2913034376427319  0.7516378169770377
  0.6257450856062619  0.2934516747958824  0.7500179359209298
  0.9677930991280661  0.2986025822679110  0.7542251843802887
  0.2201580812406405  0.3744346695770062  0.2503364699377073
  0.5473233752401754  0.3739784940776829  0.2512820173644101
  0.8743423133619856  0.3727842246910811  0.2476853600024143
  0.2000705206224893  0.7095713865773803  0.2464034909049531
  0.5397043825665335  0.7081949901360431  0.2486948663085897
  0.8739058418923733  0.7073280894300211  0.2517029625197154
  0.2110273175833157  0.0363287559302208  0.2487651514262268
  0.5407402759469804  0.0368011569270692  0.2561786103763595
  0.8734796700537117  0.0393323499969043  0.2507332477406905
  0.2129975153391470  0.3719578541087429  0.5932232861022655
  0.5382965978408976  0.3707018410479321  0.5822712593880439
  0.8742015189268528  0.3722332368374381  0.5822030230317736
  0.2073129760608055  0.7084731077930755  0.5845927366084211
  0.5536008446293224  0.7198069834971719  0.5909667070108569
  0.8832993075363262  0.7013380094887225  0.5871219807755566
  0.2096081473001661  0.0418815963512245  0.5837652968233229
  0.5388291754028316  0.0433174061631121  0.5827215912226578
  0.8757476845026702  0.0313323512919581  0.5785950405003746
  0.2119641961886813  0.3764601151527245  0.9188612772123008
  0.5413963100022485  0.3732163113514844  0.9162214664588078
  0.8747283644634365  0.3667893966441582  0.9110986558900294
  0.2085463050718346  0.6949730004970931  0.9166660363995973
  0.5390567335696090  0.7033118881014389  0.9148630167474678
  0.8781911727835734  0.6959032861675354  0.9114604123273580
  0.2120900254433096  0.0306522019586666  0.9098735685486474
  0.5331590650849023  0.0459140140115224  0.9111443923628357
  0.8713773332472883  0.0386869880558365  0.9234495733366259
  0.0314031283260121  0.5455789623477258  0.2406440798236176
  0.3805539293831899  0.5383820816878497  0.2449966463923303
  0.7089028563736548  0.5443426728002763  0.2522017937060497
  0.0391164876601025  0.8778587516877181  0.2515063163838676
  0.3741634024627061  0.8758254510644647  0.2498928474207958
  0.7068338398248102  0.8776365059636220  0.2517259328363863
  0.0421575166188646  0.2086617473725951  0.2584581829111912
  0.3785667295633885  0.2071111459032622  0.2475955485296382
  0.7131883079944785  0.2144528018600909  0.2530113160615670
  0.0439806623031771  0.5404343742152307  0.5843102387521952
  0.3808000199375670  0.5478767256713581  0.5928760815566250
  0.7044050524161136  0.5391737803981513  0.5896282110566702
  0.0510705836359762  0.8860768971236652  0.5866358305689161
  0.3749111995959780  0.8800328027825799  0.5849042192836933
  0.7039935159481630  0.8823991953810975  0.5793634286365190
  0.0372830671647151  0.2062861266747831  0.5902801558921382
  0.3741273664871301  0.2104003744753271  0.5827443971338937
  0.6996045848689647  0.2133830305313111  0.5768161085368675
  0.0424182809765981  0.5427872575595813  0.9183854543035892
  0.3765732534627659  0.5428142690613811  0.9172097565116104
  0.6991528871263313  0.5461379960498576  0.9103324994054276
  0.0330894837688263  0.8769025241618209  0.9094199273252599
  0.3853771703369944  0.8834103735819880  0.9220761912758633
  0.7012212620437239  0.8690102272241660  0.9061407931534760
  0.0448805118894313  0.2224325064393895  0.9189091891153041
  0.3729805480363808  0.2130975801596264  0.9151259590083214
  0.7065816166720182  0.2120664781993895  0.9177734796278116

  0.00000000E+00  0.00000000E+00  0.00000000E+00
  0.00000000E+00  0.00000000E+00  0.00000000E+00
  0.00000000E+00  0.00000000E+00  0.00000000E+00
  0.00000000E+00  0.00000000E+00  0.00000000E+00
  0.00000000E+00  0.00000000E+00  0.00000000E+00
  0.00000000E+00  0.00000000E+00  0.00000000E+00
  0.00000000E+00  0.00000000E+00  0.00000000E+00
  0.00000000E+00  0.00000000E+00  0.00000000E+00
  0.00000000E+00  0.00000000E+00  0.00000000E+00
  0.00000000E+00  0.00000000E+00  0.00000000E+00
  0.00000000E+00  0.00000000E+00  0.00000000E+00
  0.00000000E+00  0.00000000E+00  0.00000000E+00
  0.00000000E+00  0.00000000E+00  0.00000000E+00
  0.00000000E+00  0.00000000E+00  0.00000000E+00
  0.00000000E+00  0.00000000E+00  0.00000000E+00
  0.00000000E+00  0.00000000E+00  0.00000000E+00
  0.00000000E+00  0.00000000E+00  0.00000000E+00
  0.00000000E+00  0.00000000E+00  0.00000000E+00
  0.00000000E+00  0.00000000E+00  0.00000000E+00
  0.00000000E+00  0.00000000E+00  0.00000000E+00
  0.00000000E+00  0.00000000E+00  0.00000000E+00
  0.00000000E+00  0.00000000E+00  0.00000000E+00
  0.00000000E+00  0.00000000E+00  0.00000000E+00
  0.00000000E+00  0.00000000E+00  0.00000000E+00
  0.00000000E+00  0.00000000E+00  0.00000000E+00
  0.00000000E+00  0.00000000E+00  0.00000000E+00
  0.00000000E+00  0.00000000E+00  0.00000000E+00
  0.00000000E+00  0.00000000E+00  0.00000000E+00
  0.00000000E+00  0.00000000E+00  0.00000000E+00
  0.00000000E+00  0.00000000E+00  0.00000000E+00
  0.00000000E+00  0.00000000E+00  0.00000000E+00
  0.00000000E+00  0.00000000E+00  0.00000000E+00
  0.00000000E+00  0.00000000E+00  0.00000000E+00
  0.00000000E+00  0.00000000E+00  0.00000000E+00
  0.00000000E+00  0.00000000E+00  0.00000000E+00
  0.00000000E+00  0.00000000E+00  0.00000000E+00
  0.00000000E+00  0.00000000E+00  0.00000000E+00
  0.00000000E+00  0.00000000E+00  0.00000000E+00
  0.00000000E+00  0.00000000E+00  0.00000000E+00
  0.00000000E+00  0.00000000E+00  0.00000000E+00
  0.00000000E+00  0.00000000E+00  0.00000000E+00
  0.00000000E+00  0.00000000E+00  0.00000000E+00
  0.00000000E+00  0.00000000E+00  0.00000000E+00
  0.00000000E+00  0.00000000E+00  0.00000000E+00
  0.00000000E+00  0.00000000E+00  0.00000000E+00
  0.00000000E+00  0.00000000E+00  0.00000000E+00
  0.00000000E+00  0.00000000E+00  0.00000000E+00
  0.00000000E+00  0.00000000E+00  0.00000000E+00
  0.00000000E+00  0.00000000E+00  0.00000000E+00
  0.00000000E+00  0.00000000E+00  0.00000000E+00
  0.00000000E+00  0.00000000E+00  0.00000000E+00
  0.00000000E+00  0.00000000E+00  0.00000000E+00
  0.00000000E+00  0.00000000E+00  0.00000000E+00
  0.00000000E+00  0.00000000E+00  0.00000000E+00
  0.00000000E+00  0.00000000E+00  0.00000000E+00
  0.00000000E+00  0.00000000E+00  0.00000000E+00
  0.00000000E+00  0.00000000E+00  0.00000000E+00
  0.00000000E+00  0.00000000E+00  0.00000000E+00
  0.00000000E+00  0.00000000E+00  0.00000000E+00
  0.00000000E+00  0.00000000E+00  0.00000000E+00
  0.00000000E+00  0.00000000E+00  0.00000000E+00
  0.00000000E+00  0.00000000E+00  0.00000000E+00
  0.00000000E+00  0.00000000E+00  0.00000000E+00
  0.00000000E+00  0.00000000E+00  0.00000000E+00
  0.00000000E+00  0.00000000E+00  0.00000000E+00
  0.00000000E+00  0.00000000E+00  0.00000000E+00
  0.00000000E+00  0.00000000E+00  0.00000000E+00
  0.00000000E+00  0.00000000E+00  0.00000000E+00
  0.00000000E+00  0.00000000E+00  0.00000000E+00
  0.00000000E+00  0.00000000E+00  0.00000000E+00
  0.00000000E+00  0.00000000E+00  0.00000000E+00
  0.00000000E+00  0.00000000E+00  0.00000000E+00
  0.00000000E+00  0.00000000E+00  0.00000000E+00
  0.00000000E+00  0.00000000E+00  0.00000000E+00
  0.00000000E+00  0.00000000E+00  0.00000000E+00
  0.00000000E+00  0.00000000E+00  0.00000000E+00
  0.00000000E+00  0.00000000E+00  0.00000000E+00
  0.00000000E+00  0.00000000E+00  0.00000000E+00
  0.00000000E+00  0.00000000E+00  0.00000000E+00
  0.00000000E+00  0.00000000E+00  0.00000000E+00
  0.00000000E+00  0.00000000E+00  0.00000000E+00
  0.00000000E+00  0.00000000E+00  0.00000000E+00
  0.00000000E+00  0.00000000E+00  0.00000000E+00
  0.00000000E+00  0.00000000E+00  0.00000000E+00
  0.00000000E+00  0.00000000E+00  0.00000000E+00
  0.00000000E+00  0.00000000E+00  0.00000000E+00
  0.00000000E+00  0.00000000E+00  0.00000000E+00
  0.00000000E+00  0.00000000E+00  0.00000000E+00
  0.00000000E+00  0.00000000E+00  0.00000000E+00
  0.00000000E+00  0.00000000E+00  0.00000000E+00
  0.00000000E+00  0.00000000E+00  0.00000000E+00
  0.00000000E+00  0.00000000E+00  0.00000000E+00
  0.00000000E+00  0.00000000E+00  0.00000000E+00
  0.00000000E+00  0.00000000E+00  0.00000000E+00
  0.00000000E+00  0.00000000E+00  0.00000000E+00
  0.00000000E+00  0.00000000E+00  0.00000000E+00
  0.00000000E+00  0.00000000E+00  0.00000000E+00
  0.00000000E+00  0.00000000E+00  0.00000000E+00
  0.00000000E+00  0.00000000E+00  0.00000000E+00
  0.00000000E+00  0.00000000E+00  0.00000000E+00
  0.00000000E+00  0.00000000E+00  0.00000000E+00
  0.00000000E+00  0.00000000E+00  0.00000000E+00
  0.00000000E+00  0.00000000E+00  0.00000000E+00
  0.00000000E+00  0.00000000E+00  0.00000000E+00
  0.00000000E+00  0.00000000E+00  0.00000000E+00
  0.00000000E+00  0.00000000E+00  0.00000000E+00
  0.00000000E+00  0.00000000E+00  0.00000000E+00
  0.00000000E+00  0.00000000E+00  0.00000000E+00
  0.00000000E+00  0.00000000E+00  0.00000000E+00
  0.00000000E+00  0.00000000E+00  0.00000000E+00
  0.00000000E+00  0.00000000E+00  0.00000000E+00
  0.00000000E+00  0.00000000E+00  0.00000000E+00
  0.00000000E+00  0.00000000E+00  0.00000000E+00
  0.00000000E+00  0.00000000E+00  0.00000000E+00
  0.00000000E+00  0.00000000E+00  0.00000000E+00
  0.00000000E+00  0.00000000E+00  0.00000000E+00
  0.00000000E+00  0.00000000E+00  0.00000000E+00
  0.00000000E+00  0.00000000E+00  0.00000000E+00
  0.00000000E+00  0.00000000E+00  0.00000000E+00
  0.00000000E+00  0.00000000E+00  0.00000000E+00
  0.00000000E+00  0.00000000E+00  0.00000000E+00
  0.00000000E+00  0.00000000E+00  0.00000000E+00
  0.00000000E+00  0.00000000E+00  0.00000000E+00
  0.00000000E+00  0.00000000E+00  0.00000000E+00
  0.00000000E+00  0.00000000E+00  0.00000000E+00
  0.00000000E+00  0.00000000E+00  0.00000000E+00
  0.00000000E+00  0.00000000E+00  0.00000000E+00
  0.00000000E+00  0.00000000E+00  0.00000000E+00
  0.00000000E+00  0.00000000E+00  0.00000000E+00
  0.00000000E+00  0.00000000E+00  0.00000000E+00
  0.00000000E+00  0.00000000E+00  0.00000000E+00
  0.00000000E+00  0.00000000E+00  0.00000000E+00
  0.00000000E+00  0.00000000E+00  0.00000000E+00
  0.00000000E+00  0.00000000E+00  0.00000000E+00
  0.00000000E+00  0.00000000E+00  0.00000000E+00
  0.00000000E+00  0.00000000E+00  0.00000000E+00
  0.00000000E+00  0.00000000E+00  0.00000000E+00
  0.00000000E+00  0.00000000E+00  0.00000000E+00
  0.00000000E+00  0.00000000E+00  0.00000000E+00
  0.00000000E+00  0.00000000E+00  0.00000000E+00
  0.00000000E+00  0.00000000E+00  0.00000000E+00
  0.00000000E+00  0.00000000E+00  0.00000000E+00
  0.00000000E+00  0.00000000E+00  0.00000000E+00
  0.00000000E+00  0.00000000E+00  0.00000000E+00
  0.00000000E+00  0.00000000E+00  0.00000000E+00
  0.00000000E+00  0.00000000E+00  0.00000000E+00
  0.00000000E+00  0.00000000E+00  0.00000000E+00
  0.00000000E+00  0.00000000E+00  0.00000000E+00
  0.00000000E+00  0.00000000E+00  0.00000000E+00
  0.00000000E+00  0.00000000E+00  0.00000000E+00
  0.00000000E+00  0.00000000E+00  0.00000000E+00
  0.00000000E+00  0.00000000E+00  0.00000000E+00
  0.00000000E+00  0.00000000E+00  0.00000000E+00
  0.00000000E+00  0.00000000E+00  0.00000000E+00
  0.00000000E+00  0.00000000E+00  0.00000000E+00
  0.00000000E+00  0.00000000E+00  0.00000000E+00
  0.00000000E+00  0.00000000E+00  0.00000000E+00
  0.00000000E+00  0.00000000E+00  0.00000000E+00
  0.00000000E+00  0.00000000E+00  0.00000000E+00
  0.00000000E+00  0.00000000E+00  0.00000000E+00
  0.00000000E+00  0.00000000E+00  0.00000000E+00
  0.00000000E+00  0.00000000E+00  0.00000000E+00
  0.00000000E+00  0.00000000E+00  0.00000000E+00
  0.00000000E+00  0.00000000E+00  0.00000000E+00
  0.00000000E+00  0.00000000E+00  0.00000000E+00
  0.00000000E+00  0.00000000E+00  0.00000000E+00
  0.00000000E+00  0.00000000E+00  0.00000000E+00
  0.00000000E+00  0.00000000E+00  0.00000000E+00
  0.00000000E+00  0.00000000E+00  0.00000000E+00
  0.00000000E+00  0.00000000E+00  0.00000000E+00
  0.00000000E+00  0.00000000E+00  0.00000000E+00
  0.00000000E+00  0.00000000E+00  0.00000000E+00
  0.00000000E+00  0.00000000E+00  0.00000000E+00
  0.00000000E+00  0.00000000E+00  0.00000000E+00
  0.00000000E+00  0.00000000E+00  0.00000000E+00
  0.00000000E+00  0.00000000E+00  0.00000000E+00
  0.00000000E+00  0.00000000E+00  0.00000000E+00
  0.00000000E+00  0.00000000E+00  0.00000000E+00
  0.00000000E+00  0.00000000E+00  0.00000000E+00
  0.00000000E+00  0.00000000E+00  0.00000000E+00
  0.00000000E+00  0.00000000E+00  0.00000000E+00
  0.00000000E+00  0.00000000E+00  0.00000000E+00
  0.00000000E+00  0.00000000E+00  0.00000000E+00
  0.00000000E+00  0.00000000E+00  0.00000000E+00
  0.00000000E+00  0.00000000E+00  0.00000000E+00
  0.00000000E+00  0.00000000E+00  0.00000000E+00
  0.00000000E+00  0.00000000E+00  0.00000000E+00
  0.00000000E+00  0.00000000E+00  0.00000000E+00
  0.00000000E+00  0.00000000E+00  0.00000000E+00
  0.00000000E+00  0.00000000E+00  0.00000000E+00
  0.00000000E+00  0.00000000E+00  0.00000000E+00
  0.00000000E+00  0.00000000E+00  0.00000000E+00
  0.00000000E+00  0.00000000E+00  0.00000000E+00
  0.00000000E+00  0.00000000E+00  0.00000000E+00
  0.00000000E+00  0.00000000E+00  0.00000000E+00
  0.00000000E+00  0.00000000E+00  0.00000000E+00
  0.00000000E+00  0.00000000E+00  0.00000000E+00
  0.00000000E+00  0.00000000E+00  0.00000000E+00
  0.00000000E+00  0.00000000E+00  0.00000000E+00
  0.00000000E+00  0.00000000E+00  0.00000000E+00
  0.00000000E+00  0.00000000E+00  0.00000000E+00
  0.00000000E+00  0.00000000E+00  0.00000000E+00
  0.00000000E+00  0.00000000E+00  0.00000000E+00
  0.00000000E+00  0.00000000E+00  0.00000000E+00
  0.00000000E+00  0.00000000E+00  0.00000000E+00
  0.00000000E+00  0.00000000E+00  0.00000000E+00
  0.00000000E+00  0.00000000E+00  0.00000000E+00
  0.00000000E+00  0.00000000E+00  0.00000000E+00
  0.00000000E+00  0.00000000E+00  0.00000000E+00
  0.00000000E+00  0.00000000E+00  0.00000000E+00
  0.00000000E+00  0.00000000E+00  0.00000000E+00
  0.00000000E+00  0.00000000E+00  0.00000000E+00
  0.00000000E+00  0.00000000E+00  0.00000000E+00
  0.00000000E+00  0.00000000E+00  0.00000000E+00
  0.00000000E+00  0.00000000E+00  0.00000000E+00
  0.00000000E+00  0.00000000E+00  0.00000000E+00
