In18 Ga36 Cu42 Ag12 Se108               
   1.0000000000000000     
    15.8860566783460513    0.0026753411820737   -7.1295353839955018
    -3.2094337186403399   15.5773299753323027   -7.1536309638973083
    -0.0061697083259758    0.0102868579964359   21.2400380410857039
   In   Ga   Cu   Ag   Se
    18    36    42    12   108
Direct
  0.1692618325615101  0.4964661662195198  0.0015842889522446
  0.5042151639476273  0.5007770620825482  0.0031555197967279
  0.8301794148309227  0.5002309783772105  0.9979943623214069
  0.1735418439830099  0.1645819535694812  0.0022042394414328
  0.4968689583436472  0.1666325315929456  0.9981900125468002
  0.1649459977641570  0.4971292003434868  0.6604735682214411
  0.4984113919588467  0.8355021451850604  0.6677413059719299
  0.1662076593148569  0.1632771839282299  0.6658760307422256
  0.2512655721862060  0.7522602095888331  0.1689692439875472
  0.9191983664187617  0.7538372216175446  0.1697469319149647
  0.5838900995548570  0.0842202511374950  0.1700300884295913
  0.9128280382467864  0.4172699984698696  0.4970819413988963
  0.5811755110910610  0.7475342151731965  0.4966677481392239
  0.2480116791067388  0.0761793565860742  0.4968205518541779
  0.2520713576311522  0.4135671823048526  0.8340255718052276
  0.2521729756120692  0.7557794011946086  0.8347801042817622
  0.9165664617920015  0.7536799964588923  0.8337398215657927
  0.9157595704406347  0.0773549304235104  0.8318093580129968
  0.1720979647092307  0.8432002893772435  0.0052931211325742
  0.5046857092151811  0.8375381896912657  0.0035738881352714
  0.8276748446822069  0.8330484066376513  0.9978344562179302
  0.8293264184426548  0.1633093734080830  0.0041673874885930
  0.1691742779618082  0.5050342680852893  0.3356666212934414
  0.5014880809780777  0.4995647314843765  0.3337677705298248
  0.8297237348902655  0.5068142212831077  0.3330498220570917
  0.1678693443866592  0.8328331346045132  0.3344009446211800
  0.5003231167326376  0.8362784786860544  0.3326427580138400
  0.8341128376082381  0.8329735850386228  0.3343857095692400
  0.1641378702854297  0.1630193447957211  0.3308321433423913
  0.4983304041068735  0.1657340736889381  0.3345378804222037
  0.8349689481097968  0.1604762342826476  0.3338803014063387
  0.4989054614905228  0.5011456681923718  0.6651612316214681
  0.8306844021545317  0.4983657918268847  0.6644638866058088
  0.1656874503413235  0.8341890870686299  0.6637812932077622
  0.8340360528693935  0.8339356656693795  0.6649894979609599
  0.4998723541712309  0.1640258237481547  0.6673518784502050
  0.8334061901135925  0.1650619905029913  0.6641454885219957
  0.2590033732848482  0.4239273451599530  0.1749260268724342
  0.5819193920100147  0.4192278385650781  0.1701477321042972
  0.9119879040117951  0.4222936672187458  0.1698867871120910
  0.5869946733784062  0.7536879167221073  0.1697168282659831
  0.2535669173989774  0.0829774883660690  0.1703832611063447
  0.9145776940764065  0.0736581804415550  0.1648047768844876
  0.2498462406825936  0.4157022649073525  0.4966055644036942
  0.5822173221230571  0.4192990582735661  0.4981924612919215
  0.2483425524026259  0.7523331468059951  0.4976235850955035
  0.9162652749284632  0.7491317233794632  0.4982652440234645
  0.5809364172157245  0.0811996071280916  0.5001831929535498
  0.9194836299920368  0.0811956607085875  0.4975952527570371
  0.5791933966069678  0.4128445960094496  0.8275219519040888
  0.9134349963991184  0.4139427573678134  0.8275267684046526
  0.5821243837896901  0.7519127267387944  0.8353625864468697
  0.2499199459673278  0.0800620973152846  0.8310698812768678
  0.5829682826880358  0.0820809671888654  0.8351201681493947
  0.3366600976619196  0.3316083327934010  0.0035936267280618
  0.6662013491408487  0.3375323596711510  0.0011110580151623
  0.3406747294613126  0.6786650325117236  0.0103443738984197
  0.6663393686918511  0.6678841375499331  0.0008044212998755
  0.0002446094498652  0.9956057512880250  0.0034411264820733
  0.3359317450687556  0.0011410334963173  0.0038795304223171
  0.6649499460031407  0.9931905107287875  0.9958009064388733
  0.3381912796890774  0.3342918378371422  0.3342999133356273
  0.6633220632020098  0.3370542067015165  0.3348214083953351
  0.9999548811921386  0.6664971218617310  0.3354177241464029
  0.3342875839438406  0.6678261085207993  0.3351442390159249
  0.6641281585551226  0.6661572937102918  0.3295483965302708
  0.9972084751222496  0.9990450601487311  0.3330431425150451
  0.3359854762416674  0.0002069150743580  0.3320829881063432
  0.6660933492531314  0.9956555974427559  0.3333671918345331
  0.9959638761142884  0.3240072872067401  0.6637823558649103
  0.3321240483126147  0.3314582676942592  0.6616567210078159
  0.6682286478895492  0.3351802039000802  0.6670342117623207
  0.9951046858568375  0.6699078218718171  0.6585247451347129
  0.3326630442167442  0.6660718279832238  0.6589009195947213
  0.0018896886637876  0.9941402833110686  0.6641144947371913
  0.3349970624410332  0.9981611665505028  0.6686897724108789
  0.6595572991743879  0.0013417970780765  0.6644284408046204
  0.0863023680915020  0.5848789104406862  0.1777020263053757
  0.4226435138446050  0.5863642606791615  0.1728852986223686
  0.7507201310951359  0.5870757672740936  0.1707368785477996
  0.0858012418742788  0.9234946406215272  0.1708817396888023
  0.4198664856032792  0.9184361327365878  0.1674065273091259
  0.7492538759360627  0.9146107809578226  0.1676119405346128
  0.4174475177822359  0.2545070300831540  0.1740637679154275
  0.0861362210009347  0.5907526915567374  0.4986606544716281
  0.4075445344594542  0.5773156393377761  0.4943303575274030
  0.7500137833603731  0.5843531703141593  0.4967220191780086
  0.0789523247372017  0.9097065299848452  0.4951837152159868
  0.4154340781354193  0.9158716518531662  0.4974951472503477
  0.0851859925663021  0.2461072048745123  0.4975595540027484
  0.7419479547410432  0.5778855731179320  0.8291589614802461
  0.0862909048580534  0.9157327759047220  0.8316781984006454
  0.4152140399422422  0.9157942359085638  0.8329747188996492
  0.7507145981459615  0.9248432910509905  0.8377916247415413
  0.0797113152201092  0.2457074741467764  0.8276809175441784
  0.4190808218681639  0.2449592147425932  0.8304500576599949
  0.0040724296370129  0.3354441639764332  0.0070560070962529
  0.9988132551181224  0.6697733558169716  0.9981369223220184
  0.0047293920568023  0.3334851323136192  0.3342046660004740
  0.6701738549903808  0.6654295784272506  0.6671970101493798
  0.0881136912129179  0.2565601178684034  0.1677404751847860
  0.7497457540210561  0.2479949886897330  0.1674864595239285
  0.7563105389620048  0.9184223194226675  0.5029432881211946
  0.4161504308565114  0.2570879240362771  0.5013978813053726
  0.7461129747069393  0.2457136406448654  0.4966462009042445
  0.0846231646221725  0.5897358364199974  0.8294194614679640
  0.4209787555845850  0.5827765241130578  0.8329983326445429
  0.7432176580691916  0.2416951029452648  0.8322201787411458
  0.1333087681522542  0.4671554639112472  0.1001760220223247
  0.4547758186459063  0.4578107327726357  0.0896256701898608
  0.7853287002423599  0.4607571036806632  0.0882719203467275
  0.1244753610842508  0.8053212371629996  0.0850934433512833
  0.4633365707102541  0.7976770707573451  0.0877316598321727
  0.7840167256335562  0.7932030633547029  0.0797376939526799
  0.1255912024977306  0.1148001306111937  0.0850284548599447
  0.4486674411898477  0.1296444927665164  0.0873564306265493
  0.7891755341192663  0.1124791334810098  0.0812978749183202
  0.1312916109837090  0.4689901980597497  0.4221960842433532
  0.4565174837002957  0.4597077352249599  0.4163193026113490
  0.7811839020484683  0.4613595110632431  0.4094273954447729
  0.1211876763172057  0.7897427039155289  0.4140120868107147
  0.4505196368107036  0.7946337782135515  0.4104689933190855
  0.7909915040576294  0.7839592084395193  0.4114740674480259
  0.1170375402594743  0.1234537706461651  0.4109688154837414
  0.4580502519272827  0.1213416577638213  0.4156566260860615
  0.7916324728703401  0.1130887345816376  0.4116495700930329
  0.1157403200242086  0.4467543570464372  0.7416720136002652
  0.4555579250549613  0.4495386758817119  0.7410022005981105
  0.7884128394755621  0.4595908563809203  0.7488368800496872
  0.1163458935610322  0.7926863483932323  0.7424526498701525
  0.4527137882901542  0.7889528289220067  0.7539258268007103
  0.7896307315836495  0.8064498805136324  0.7512522266175310
  0.1200703352466306  0.1183794931911137  0.7525155430130752
  0.4578218994217806  0.1207396615386926  0.7498191004408454
  0.7856935804895357  0.1162658712393068  0.7383198593866922
  0.3047631278588199  0.6257627851416103  0.0863687221863785
  0.6355670248565843  0.6341458844782082  0.0899874796080269
  0.9695338019200221  0.6221972350339300  0.0907138925919782
  0.2994792357159000  0.9625293686346907  0.0880686705864235
  0.6316975497786075  0.9556091328639766  0.0822613119600604
  0.9580313795922990  0.9519459457473474  0.0825289908097773
  0.3024627200830494  0.3007054065090600  0.0931092411157337
  0.6241345364190991  0.3022738743199724  0.0842590585089411
  0.9452385959359333  0.2930770942414540  0.0866919495100191
  0.2930565015054327  0.6283405669288769  0.4170076445599662
  0.6285831339362176  0.6186897389013666  0.4099667640489528
  0.9591083332533117  0.6262321266638864  0.4169403276337178
  0.2961320134885170  0.9499434840983767  0.4088406957957034
  0.6225707517131553  0.9604346347075321  0.4155935825166850
  0.9609257487040139  0.9555739414485842  0.4156621091623052
  0.2831075177950879  0.2923952439729263  0.4074289645517837
  0.6168277836500593  0.2939247890352874  0.4115782505028989
  0.9592352534576989  0.2810780466070355  0.4167441050164840
  0.2951314168068748  0.6284586186943883  0.7427027075718655
  0.6207035361132469  0.6244944831743027  0.7538806613242883
  0.9510814689416591  0.6237332480821749  0.7357087414599306
  0.2939658256124247  0.9561893095323839  0.7493934707387595
  0.6328414042620167  0.9668002828479558  0.7548420463266083
  0.9638935102783748  0.9493138333786888  0.7440839423630834
  0.3037706888439828  0.2893979705690271  0.7473385673523083
  0.6195176889216256  0.2914040338813209  0.7430239222643991
  0.9578713586815795  0.2885848036940857  0.7479601280146468
  0.2197538020860463  0.3847769353759531  0.2589298581455708
  0.5411020619832811  0.3735725144694442  0.2511250134168179
  0.8744630686077386  0.3861411409125779  0.2544894645207165
  0.2068848896021009  0.7051036815411038  0.2556443207444872
  0.5434722771494549  0.7106425170417339  0.2513414441229003
  0.8749091173315122  0.7061143851420653  0.2559760089472363
  0.2120433590942312  0.0406379129022554  0.2528023572443630
  0.5414934868548968  0.0389091061365647  0.2575362891399564
  0.8726825541262926  0.0344507023621503  0.2485290716243824
  0.2098339715393678  0.3636720210189779  0.5739543140478105
  0.5510608506316927  0.3840364028205201  0.5878868394408059
  0.8784455242841744  0.3759457748781685  0.5909451697705137
  0.2097061865898198  0.7104551121873826  0.5816192227022015
  0.5297494895954884  0.6969719153117779  0.5763193188921463
  0.8698166388993229  0.7072747555199470  0.5785053100959274
  0.2058681434158700  0.0250984217407577  0.5815863048673080
  0.5371771040160311  0.0375598174781331  0.5812892762654371
  0.8874036397378546  0.0482488615381484  0.5882862494035592
  0.2083365570235287  0.3586143954095888  0.9162808203141282
  0.5429633899017716  0.3661172090122164  0.9102442994293156
  0.8748555564514788  0.3720849428442250  0.9091374701749828
  0.2165822936866064  0.7172800526664815  0.9299568158331866
  0.5491326399832701  0.7160654791786030  0.9237704088599301
  0.8592851420676979  0.7048407133669201  0.9123438904917123
  0.2143676148026614  0.0308604979981055  0.9120732104394662
  0.5421991647058135  0.0319181614033042  0.9128052462065739
  0.8767534465014322  0.0405513242338671  0.9265772394123246
  0.0402872641932248  0.5435865111130198  0.2538474630996816
  0.3809265834250652  0.5491482575368281  0.2556459258602146
  0.7047233136728224  0.5452748484631016  0.2485735903395394
  0.0509925967702998  0.8856106445607281  0.2567120838257040
  0.3824418119232433  0.8837466142629609  0.2526662707503391
  0.7105809090836885  0.8774797974585198  0.2521217207950031
  0.0382185364907741  0.1949793301196152  0.2447040197308894
  0.3751376063327143  0.2096598964338128  0.2524165525425985
  0.7147191335971783  0.2156240357480215  0.2646037209357530
  0.0401695678120007  0.5527872910743383  0.5780046353425448
  0.3735641593007841  0.5404996280075522  0.5805917401756346
  0.7112658275924559  0.5361801940970707  0.5750885250066986
  0.0399498473048823  0.8738749927658915  0.5795012352105431
  0.3682310427961184  0.8796759454965795  0.5773365126681398
  0.7096538324266461  0.8811104570887451  0.5917239215595629
  0.0370111837315150  0.2100056239370289  0.5767959449260829
  0.3776141444896908  0.2083026586026904  0.5891918871530137
  0.7038003070660608  0.2058567100486854  0.5872625724236187
  0.0364401581978342  0.5344289437071907  0.9094824468363143
  0.3732382747252601  0.5536629332083578  0.9246624321465404
  0.6964014470146083  0.5438981252577406  0.9108611723935667
  0.0505490011858072  0.8851435509491310  0.9208565273034779
  0.3853667736693041  0.8871053858159783  0.9253300039870140
  0.7064947307438985  0.8756496970227658  0.9128595806329045
  0.0449230813427945  0.2095371114581397  0.9133062074711660
  0.3665633997172506  0.2109274067163014  0.9092366353148691
  0.7042272487641483  0.2071190720414364  0.9256855406422630

  0.00000000E+00  0.00000000E+00  0.00000000E+00
  0.00000000E+00  0.00000000E+00  0.00000000E+00
  0.00000000E+00  0.00000000E+00  0.00000000E+00
  0.00000000E+00  0.00000000E+00  0.00000000E+00
  0.00000000E+00  0.00000000E+00  0.00000000E+00
  0.00000000E+00  0.00000000E+00  0.00000000E+00
  0.00000000E+00  0.00000000E+00  0.00000000E+00
  0.00000000E+00  0.00000000E+00  0.00000000E+00
  0.00000000E+00  0.00000000E+00  0.00000000E+00
  0.00000000E+00  0.00000000E+00  0.00000000E+00
  0.00000000E+00  0.00000000E+00  0.00000000E+00
  0.00000000E+00  0.00000000E+00  0.00000000E+00
  0.00000000E+00  0.00000000E+00  0.00000000E+00
  0.00000000E+00  0.00000000E+00  0.00000000E+00
  0.00000000E+00  0.00000000E+00  0.00000000E+00
  0.00000000E+00  0.00000000E+00  0.00000000E+00
  0.00000000E+00  0.00000000E+00  0.00000000E+00
  0.00000000E+00  0.00000000E+00  0.00000000E+00
  0.00000000E+00  0.00000000E+00  0.00000000E+00
  0.00000000E+00  0.00000000E+00  0.00000000E+00
  0.00000000E+00  0.00000000E+00  0.00000000E+00
  0.00000000E+00  0.00000000E+00  0.00000000E+00
  0.00000000E+00  0.00000000E+00  0.00000000E+00
  0.00000000E+00  0.00000000E+00  0.00000000E+00
  0.00000000E+00  0.00000000E+00  0.00000000E+00
  0.00000000E+00  0.00000000E+00  0.00000000E+00
  0.00000000E+00  0.00000000E+00  0.00000000E+00
  0.00000000E+00  0.00000000E+00  0.00000000E+00
  0.00000000E+00  0.00000000E+00  0.00000000E+00
  0.00000000E+00  0.00000000E+00  0.00000000E+00
  0.00000000E+00  0.00000000E+00  0.00000000E+00
  0.00000000E+00  0.00000000E+00  0.00000000E+00
  0.00000000E+00  0.00000000E+00  0.00000000E+00
  0.00000000E+00  0.00000000E+00  0.00000000E+00
  0.00000000E+00  0.00000000E+00  0.00000000E+00
  0.00000000E+00  0.00000000E+00  0.00000000E+00
  0.00000000E+00  0.00000000E+00  0.00000000E+00
  0.00000000E+00  0.00000000E+00  0.00000000E+00
  0.00000000E+00  0.00000000E+00  0.00000000E+00
  0.00000000E+00  0.00000000E+00  0.00000000E+00
  0.00000000E+00  0.00000000E+00  0.00000000E+00
  0.00000000E+00  0.00000000E+00  0.00000000E+00
  0.00000000E+00  0.00000000E+00  0.00000000E+00
  0.00000000E+00  0.00000000E+00  0.00000000E+00
  0.00000000E+00  0.00000000E+00  0.00000000E+00
  0.00000000E+00  0.00000000E+00  0.00000000E+00
  0.00000000E+00  0.00000000E+00  0.00000000E+00
  0.00000000E+00  0.00000000E+00  0.00000000E+00
  0.00000000E+00  0.00000000E+00  0.00000000E+00
  0.00000000E+00  0.00000000E+00  0.00000000E+00
  0.00000000E+00  0.00000000E+00  0.00000000E+00
  0.00000000E+00  0.00000000E+00  0.00000000E+00
  0.00000000E+00  0.00000000E+00  0.00000000E+00
  0.00000000E+00  0.00000000E+00  0.00000000E+00
  0.00000000E+00  0.00000000E+00  0.00000000E+00
  0.00000000E+00  0.00000000E+00  0.00000000E+00
  0.00000000E+00  0.00000000E+00  0.00000000E+00
  0.00000000E+00  0.00000000E+00  0.00000000E+00
  0.00000000E+00  0.00000000E+00  0.00000000E+00
  0.00000000E+00  0.00000000E+00  0.00000000E+00
  0.00000000E+00  0.00000000E+00  0.00000000E+00
  0.00000000E+00  0.00000000E+00  0.00000000E+00
  0.00000000E+00  0.00000000E+00  0.00000000E+00
  0.00000000E+00  0.00000000E+00  0.00000000E+00
  0.00000000E+00  0.00000000E+00  0.00000000E+00
  0.00000000E+00  0.00000000E+00  0.00000000E+00
  0.00000000E+00  0.00000000E+00  0.00000000E+00
  0.00000000E+00  0.00000000E+00  0.00000000E+00
  0.00000000E+00  0.00000000E+00  0.00000000E+00
  0.00000000E+00  0.00000000E+00  0.00000000E+00
  0.00000000E+00  0.00000000E+00  0.00000000E+00
  0.00000000E+00  0.00000000E+00  0.00000000E+00
  0.00000000E+00  0.00000000E+00  0.00000000E+00
  0.00000000E+00  0.00000000E+00  0.00000000E+00
  0.00000000E+00  0.00000000E+00  0.00000000E+00
  0.00000000E+00  0.00000000E+00  0.00000000E+00
  0.00000000E+00  0.00000000E+00  0.00000000E+00
  0.00000000E+00  0.00000000E+00  0.00000000E+00
  0.00000000E+00  0.00000000E+00  0.00000000E+00
  0.00000000E+00  0.00000000E+00  0.00000000E+00
  0.00000000E+00  0.00000000E+00  0.00000000E+00
  0.00000000E+00  0.00000000E+00  0.00000000E+00
  0.00000000E+00  0.00000000E+00  0.00000000E+00
  0.00000000E+00  0.00000000E+00  0.00000000E+00
  0.00000000E+00  0.00000000E+00  0.00000000E+00
  0.00000000E+00  0.00000000E+00  0.00000000E+00
  0.00000000E+00  0.00000000E+00  0.00000000E+00
  0.00000000E+00  0.00000000E+00  0.00000000E+00
  0.00000000E+00  0.00000000E+00  0.00000000E+00
  0.00000000E+00  0.00000000E+00  0.00000000E+00
  0.00000000E+00  0.00000000E+00  0.00000000E+00
  0.00000000E+00  0.00000000E+00  0.00000000E+00
  0.00000000E+00  0.00000000E+00  0.00000000E+00
  0.00000000E+00  0.00000000E+00  0.00000000E+00
  0.00000000E+00  0.00000000E+00  0.00000000E+00
  0.00000000E+00  0.00000000E+00  0.00000000E+00
  0.00000000E+00  0.00000000E+00  0.00000000E+00
  0.00000000E+00  0.00000000E+00  0.00000000E+00
  0.00000000E+00  0.00000000E+00  0.00000000E+00
  0.00000000E+00  0.00000000E+00  0.00000000E+00
  0.00000000E+00  0.00000000E+00  0.00000000E+00
  0.00000000E+00  0.00000000E+00  0.00000000E+00
  0.00000000E+00  0.00000000E+00  0.00000000E+00
  0.00000000E+00  0.00000000E+00  0.00000000E+00
  0.00000000E+00  0.00000000E+00  0.00000000E+00
  0.00000000E+00  0.00000000E+00  0.00000000E+00
  0.00000000E+00  0.00000000E+00  0.00000000E+00
  0.00000000E+00  0.00000000E+00  0.00000000E+00
  0.00000000E+00  0.00000000E+00  0.00000000E+00
  0.00000000E+00  0.00000000E+00  0.00000000E+00
  0.00000000E+00  0.00000000E+00  0.00000000E+00
  0.00000000E+00  0.00000000E+00  0.00000000E+00
  0.00000000E+00  0.00000000E+00  0.00000000E+00
  0.00000000E+00  0.00000000E+00  0.00000000E+00
  0.00000000E+00  0.00000000E+00  0.00000000E+00
  0.00000000E+00  0.00000000E+00  0.00000000E+00
  0.00000000E+00  0.00000000E+00  0.00000000E+00
  0.00000000E+00  0.00000000E+00  0.00000000E+00
  0.00000000E+00  0.00000000E+00  0.00000000E+00
  0.00000000E+00  0.00000000E+00  0.00000000E+00
  0.00000000E+00  0.00000000E+00  0.00000000E+00
  0.00000000E+00  0.00000000E+00  0.00000000E+00
  0.00000000E+00  0.00000000E+00  0.00000000E+00
  0.00000000E+00  0.00000000E+00  0.00000000E+00
  0.00000000E+00  0.00000000E+00  0.00000000E+00
  0.00000000E+00  0.00000000E+00  0.00000000E+00
  0.00000000E+00  0.00000000E+00  0.00000000E+00
  0.00000000E+00  0.00000000E+00  0.00000000E+00
  0.00000000E+00  0.00000000E+00  0.00000000E+00
  0.00000000E+00  0.00000000E+00  0.00000000E+00
  0.00000000E+00  0.00000000E+00  0.00000000E+00
  0.00000000E+00  0.00000000E+00  0.00000000E+00
  0.00000000E+00  0.00000000E+00  0.00000000E+00
  0.00000000E+00  0.00000000E+00  0.00000000E+00
  0.00000000E+00  0.00000000E+00  0.00000000E+00
  0.00000000E+00  0.00000000E+00  0.00000000E+00
  0.00000000E+00  0.00000000E+00  0.00000000E+00
  0.00000000E+00  0.00000000E+00  0.00000000E+00
  0.00000000E+00  0.00000000E+00  0.00000000E+00
  0.00000000E+00  0.00000000E+00  0.00000000E+00
  0.00000000E+00  0.00000000E+00  0.00000000E+00
  0.00000000E+00  0.00000000E+00  0.00000000E+00
  0.00000000E+00  0.00000000E+00  0.00000000E+00
  0.00000000E+00  0.00000000E+00  0.00000000E+00
  0.00000000E+00  0.00000000E+00  0.00000000E+00
  0.00000000E+00  0.00000000E+00  0.00000000E+00
  0.00000000E+00  0.00000000E+00  0.00000000E+00
  0.00000000E+00  0.00000000E+00  0.00000000E+00
  0.00000000E+00  0.00000000E+00  0.00000000E+00
  0.00000000E+00  0.00000000E+00  0.00000000E+00
  0.00000000E+00  0.00000000E+00  0.00000000E+00
  0.00000000E+00  0.00000000E+00  0.00000000E+00
  0.00000000E+00  0.00000000E+00  0.00000000E+00
  0.00000000E+00  0.00000000E+00  0.00000000E+00
  0.00000000E+00  0.00000000E+00  0.00000000E+00
  0.00000000E+00  0.00000000E+00  0.00000000E+00
  0.00000000E+00  0.00000000E+00  0.00000000E+00
  0.00000000E+00  0.00000000E+00  0.00000000E+00
  0.00000000E+00  0.00000000E+00  0.00000000E+00
  0.00000000E+00  0.00000000E+00  0.00000000E+00
  0.00000000E+00  0.00000000E+00  0.00000000E+00
  0.00000000E+00  0.00000000E+00  0.00000000E+00
  0.00000000E+00  0.00000000E+00  0.00000000E+00
  0.00000000E+00  0.00000000E+00  0.00000000E+00
  0.00000000E+00  0.00000000E+00  0.00000000E+00
  0.00000000E+00  0.00000000E+00  0.00000000E+00
  0.00000000E+00  0.00000000E+00  0.00000000E+00
  0.00000000E+00  0.00000000E+00  0.00000000E+00
  0.00000000E+00  0.00000000E+00  0.00000000E+00
  0.00000000E+00  0.00000000E+00  0.00000000E+00
  0.00000000E+00  0.00000000E+00  0.00000000E+00
  0.00000000E+00  0.00000000E+00  0.00000000E+00
  0.00000000E+00  0.00000000E+00  0.00000000E+00
  0.00000000E+00  0.00000000E+00  0.00000000E+00
  0.00000000E+00  0.00000000E+00  0.00000000E+00
  0.00000000E+00  0.00000000E+00  0.00000000E+00
  0.00000000E+00  0.00000000E+00  0.00000000E+00
  0.00000000E+00  0.00000000E+00  0.00000000E+00
  0.00000000E+00  0.00000000E+00  0.00000000E+00
  0.00000000E+00  0.00000000E+00  0.00000000E+00
  0.00000000E+00  0.00000000E+00  0.00000000E+00
  0.00000000E+00  0.00000000E+00  0.00000000E+00
  0.00000000E+00  0.00000000E+00  0.00000000E+00
  0.00000000E+00  0.00000000E+00  0.00000000E+00
  0.00000000E+00  0.00000000E+00  0.00000000E+00
  0.00000000E+00  0.00000000E+00  0.00000000E+00
  0.00000000E+00  0.00000000E+00  0.00000000E+00
  0.00000000E+00  0.00000000E+00  0.00000000E+00
  0.00000000E+00  0.00000000E+00  0.00000000E+00
  0.00000000E+00  0.00000000E+00  0.00000000E+00
  0.00000000E+00  0.00000000E+00  0.00000000E+00
  0.00000000E+00  0.00000000E+00  0.00000000E+00
  0.00000000E+00  0.00000000E+00  0.00000000E+00
  0.00000000E+00  0.00000000E+00  0.00000000E+00
  0.00000000E+00  0.00000000E+00  0.00000000E+00
  0.00000000E+00  0.00000000E+00  0.00000000E+00
  0.00000000E+00  0.00000000E+00  0.00000000E+00
  0.00000000E+00  0.00000000E+00  0.00000000E+00
  0.00000000E+00  0.00000000E+00  0.00000000E+00
  0.00000000E+00  0.00000000E+00  0.00000000E+00
  0.00000000E+00  0.00000000E+00  0.00000000E+00
  0.00000000E+00  0.00000000E+00  0.00000000E+00
  0.00000000E+00  0.00000000E+00  0.00000000E+00
  0.00000000E+00  0.00000000E+00  0.00000000E+00
  0.00000000E+00  0.00000000E+00  0.00000000E+00
  0.00000000E+00  0.00000000E+00  0.00000000E+00
  0.00000000E+00  0.00000000E+00  0.00000000E+00
  0.00000000E+00  0.00000000E+00  0.00000000E+00
  0.00000000E+00  0.00000000E+00  0.00000000E+00
  0.00000000E+00  0.00000000E+00  0.00000000E+00
  0.00000000E+00  0.00000000E+00  0.00000000E+00
  0.00000000E+00  0.00000000E+00  0.00000000E+00
  0.00000000E+00  0.00000000E+00  0.00000000E+00
  0.00000000E+00  0.00000000E+00  0.00000000E+00
  0.00000000E+00  0.00000000E+00  0.00000000E+00
  0.00000000E+00  0.00000000E+00  0.00000000E+00
