In54 Cu48 Ag6 Se108                     
   1.0000000000000000     
    16.1826188891222316   -0.0219610702821633   -7.2473801894335130
    -3.2203499449229112   15.8557372991869414   -7.2395177856087116
     0.0455530208937530    0.0572985648987965   21.7905973707555560
   In   Cu   Ag   Se
    54    48     6   108
Direct
  0.1664257851184701  0.5004568327272239  0.9999541580762141
  0.4984199757893037  0.5008787616093784  0.0008282721681567
  0.8360565529859159  0.5001274385861123  0.0017037913004998
  0.1680301051540027  0.8332464682093459  0.0006563227900713
  0.4993399422937728  0.8353631926033103  0.0014569361339483
  0.8344613617975085  0.8363165220042816  0.0008558863969768
  0.1658666973116709  0.1668299230055936  0.0000242270494581
  0.4987439882622269  0.1652741411040424  0.0001690271153194
  0.8346009675701112  0.1649802590541753  0.9991679129431006
  0.1647028329192750  0.5019096244282153  0.3333163651500044
  0.4997753278958967  0.5044203913245155  0.3347066990762357
  0.8356477413057419  0.5011692678698481  0.3319924614438321
  0.1662720453978466  0.8335412293438083  0.3329768760678178
  0.4998588303960219  0.8335918272962601  0.3325930508942179
  0.8335531761787607  0.8346054858060654  0.3334554839098018
  0.1651236857292986  0.1651092165363153  0.3338445003848349
  0.4990339947774558  0.1616705912485088  0.3331018397623353
  0.8356339392204148  0.1636457469033701  0.3340438723109571
  0.1646099135611649  0.4999876279791238  0.6667142244707662
  0.4955232291962375  0.4981258376016484  0.6639592181926517
  0.8377686544536758  0.4971745222480735  0.6653307420814087
  0.1662686474253476  0.8340369206864651  0.6663261527458815
  0.4976552012395814  0.8357629825901398  0.6661751181233697
  0.8362321687581584  0.8365675017285383  0.6671336071590943
  0.1651355227363425  0.1653260435627146  0.6656347564600580
  0.5007056978586633  0.1653249824232645  0.6676356623954049
  0.8347874161457298  0.1649959081161896  0.6664864948986349
  0.2489279946316358  0.4184918570618663  0.1659843713224873
  0.5819788263798458  0.4181202516671689  0.1677535917410893
  0.9195112341423055  0.4170693390311442  0.1679561621688919
  0.2508073186422592  0.7513426598305344  0.1685121945791153
  0.5826223672184625  0.7505492135874192  0.1671582270397920
  0.9179550130290366  0.7506825498500618  0.1667556701972970
  0.2495532703530046  0.0810831658928990  0.1657781984586677
  0.5831677524240177  0.0816972098364914  0.1664482643755747
  0.9172375832071253  0.0839433195240105  0.1672045648099072
  0.2469254814029682  0.4164780113635800  0.5006990556401547
  0.5847381580086690  0.4150711499622304  0.5009213359442484
  0.9187190940188046  0.4160955227134124  0.4993310843527325
  0.2488244734691847  0.7515668644525562  0.4989974373015542
  0.5827380286919848  0.7523228680391156  0.4986016149161756
  0.9171303997569993  0.7506827072763329  0.4994770146151453
  0.2492650275785664  0.0815580833334337  0.4995363206690087
  0.5831988830859274  0.0813421246347517  0.4997720619657855
  0.9171258833335685  0.0824990475642196  0.5000944134739171
  0.2478166238452602  0.4143946122444788  0.8334690920287215
  0.5828983105471011  0.4143478649117540  0.8323308742229258
  0.9187466400520421  0.4148063530635895  0.8328743287906448
  0.2477715568667307  0.7515744641311741  0.8331385474479021
  0.5810306476320122  0.7540988068502585  0.8343348523195289
  0.9218134950115200  0.7532444019031175  0.8345415768778039
  0.2498298273052981  0.0837311877906401  0.8335848345720507
  0.5827488842715240  0.0811718799415644  0.8325970143385462
  0.9174836539944877  0.0831717922785344  0.8334945937457974
  0.0000102050988886  0.3336334242011887  0.9994410226706236
  0.3327471341185273  0.3334826599480749  0.0002070438779072
  0.0057703198746708  0.6678523463182913  0.0026502009381204
  0.3306207910883643  0.6698109621599144  0.0033726516764148
  0.6695049851877215  0.6700804315069604  0.0059388109966179
  0.0024747367411422  0.9998934052559036  0.0010388261818264
  0.3323914336632328  0.9987532300029542  0.9995451561516546
  0.6660701792757777  0.9990617135203479  0.9996615708650367
  0.0002513986713737  0.3327992656858640  0.3331912406764985
  0.9999348029786290  0.6683243543328956  0.3329713958885137
  0.3325929013760742  0.6685526810443747  0.3333179930149797
  0.6671289135037171  0.6677149737281880  0.3327175395745670
  0.0003764867981744  0.9986922889766774  0.3331263141019178
  0.3323143107363720  0.9990540334095357  0.3331996699229265
  0.6677213441726408  0.9985958819856577  0.3335799357292615
  0.0012795242947234  0.3321455034655543  0.6667860418918963
  0.3292509893818760  0.3277203704742035  0.6635069978830543
  0.6643527459389063  0.3287151660346481  0.6641691620043488
  0.0006662555128756  0.6671751647487838  0.6665046560541583
  0.3313358344960875  0.6692024625043729  0.6634774407926969
  0.0009916239060388  0.0004216200187344  0.6661550774998872
  0.3323217790846940  0.0006753100790391  0.6669685043807760
  0.6666519568723004  0.9991664966514051  0.6662652379673801
  0.0829287014202365  0.5836684181018583  0.1662608844610745
  0.4165165925704528  0.5830223388144589  0.1670128243099143
  0.7505539143879858  0.5876185455974223  0.1696050217383913
  0.0837997048885910  0.9178433518132749  0.1670073715410396
  0.4171411730970220  0.9168116284306436  0.1669240724909216
  0.7500630401921029  0.9169436139770752  0.1664489627243952
  0.0793651934581163  0.2478098494782870  0.1643819004630842
  0.4134455341714940  0.2471056485433465  0.1618108637065916
  0.7547268120561270  0.2475368871769419  0.1668056732221714
  0.0822535442500154  0.5834254394230101  0.4993046913847863
  0.4109892514080258  0.5853600665675600  0.4996194832325074
  0.7522860746756521  0.5882443169430616  0.4991868409982843
  0.0830447016402545  0.9168848337669786  0.4997721274929887
  0.4162503419327450  0.9167784072733056  0.4997506422968456
  0.7503787862022904  0.9160678801582591  0.4995505309395369
  0.0829444928669076  0.2489600724389547  0.4998399490635563
  0.4194030988169146  0.2478226065571363  0.5032422241829053
  0.7534313920772107  0.2472202721405807  0.5027024165165699
  0.0833559140613360  0.5833366136378260  0.8333021091860147
  0.0845410160052396  0.9185911911863798  0.8335908795419158
  0.4155201605784811  0.9179141894558782  0.8335530642236648
  0.7509317363227055  0.9213475029434264  0.8354386288745417
  0.0832835999512653  0.2486669566188908  0.8334096927035333
  0.4110656158222454  0.2463121797932857  0.8304602424337091
  0.7525787129306778  0.2485970038827787  0.8305047293530237
  0.6657204631995413  0.3328210842574677  0.0000704975410670
  0.3331892946559023  0.3338185286719337  0.3346281657400212
  0.6659483071899146  0.3329533714428550  0.3337668462934857
  0.6683355582741441  0.6677302763683812  0.6634984257999861
  0.4157019227922305  0.5829354469105823  0.8334897139152773
  0.7543249762916631  0.5824173558997074  0.8359210992805757
  0.1131237688673536  0.4590947793599511  0.0824399442227204
  0.4468798709357529  0.4582792961713693  0.0835967401539222
  0.7891806069838481  0.4668722033050940  0.0904858463322995
  0.1169085942754435  0.7936712980498726  0.0852472785856975
  0.4469914733151157  0.7918341918479186  0.0836441490135940
  0.7833699709908402  0.7933941501664776  0.0843281046955440
  0.1151515059155486  0.1252601710848538  0.0841006718357562
  0.4470979386985974  0.1225857703218693  0.0826748837996263
  0.7816562532606923  0.1232589418764789  0.0816404393966437
  0.1131206808889473  0.4584258301876147  0.4161833287544354
  0.4560103462905047  0.4680580532763514  0.4239201745068755
  0.7895483270765453  0.4666477331535646  0.4204487619711301
  0.1134872443277501  0.7928626163340695  0.4159654633182299
  0.4467893227032178  0.7929369915277817  0.4154792483021481
  0.7813818612925019  0.7919648524713025  0.4161606855614082
  0.1133741654387777  0.1235039425579672  0.4170905787937045
  0.4467758471471512  0.1229543850173158  0.4173952733298094
  0.7816612424400020  0.1233141363712917  0.4167460077170446
  0.1138206722812782  0.4580377524322898  0.7504666264901729
  0.4470739566117956  0.4477864738114832  0.7432850437855123
  0.7836545284129457  0.4483431661519575  0.7430761982726111
  0.1131719402197646  0.7932830754050570  0.7495408613746193
  0.4453777395206728  0.7934122329607973  0.7492418811903789
  0.7905090801722210  0.8016984711116777  0.7560513848452146
  0.1145333026008046  0.1249054687928108  0.7500451285262812
  0.4474372026522460  0.1241560120289265  0.7504976898171734
  0.7820137105813671  0.1228315080503180  0.7486561111988053
  0.3015847389828679  0.6257300429184980  0.0853272844637942
  0.6346476115281519  0.6252711439226672  0.0848350249201317
  0.9702063256155284  0.6261037358630688  0.0831688718660075
  0.3029482332321294  0.9573485035280029  0.0832360729729942
  0.6357015115972260  0.9581595055008094  0.0833034561571253
  0.9704183797607442  0.9602309104813429  0.0844325196683045
  0.3001844997000873  0.2921577126642276  0.0826848556035529
  0.6337763481609926  0.2885953729144219  0.0905175068466164
  0.9678658966834632  0.2914386353252354  0.0818671043024466
  0.2997971812101667  0.6260015811585049  0.4151359689067249
  0.6364632258234693  0.6275681048490327  0.4165965389799879
  0.9700629412789965  0.6266406222679706  0.4162076791674494
  0.3017817416156490  0.9575918523913813  0.4162943706324214
  0.6360067849010207  0.9574165646263069  0.4164190245807262
  0.9692710258725938  0.9584093086861856  0.4166161933678936
  0.3002482927878063  0.2882273519459986  0.4238897681025549
  0.6336265671227892  0.2851593284609635  0.4219074359497341
  0.9695937481773385  0.2902933022030041  0.4158674243030305
  0.2940130941774726  0.6288564946913198  0.7439183004831378
  0.6251379006671911  0.6254608417862357  0.7498525312102728
  0.9702998058306775  0.6253917936952860  0.7498761107424912
  0.3016517109652455  0.9589760778683356  0.7500652421539442
  0.6352566915516036  0.9574257765479217  0.7491323588586596
  0.9714627099174962  0.9606488034625684  0.7504999278187086
  0.2992718632696452  0.2902669713239661  0.7487346597343745
  0.6364492828287993  0.2902157477860854  0.7499073440344404
  0.9703615530522711  0.2897530925558769  0.7495110074258022
  0.1989834324168882  0.3666997467989077  0.2443892845515592
  0.5312580913497129  0.3672184007324475  0.2458912763755237
  0.8761864586034633  0.3640083707229991  0.2497469535821111
  0.2074393682241435  0.6981279177745492  0.2500283131656786
  0.5411816159624223  0.6975997555798799  0.2498893267730864
  0.8756983610413727  0.7001541559147171  0.2506584894424435
  0.2085757517735161  0.0312473894817913  0.2505432521823607
  0.5430540610921710  0.0288785860955940  0.2500862667258161
  0.8762887646313473  0.0291862041710118  0.2494666847820994
  0.2064340052846134  0.3642061221702733  0.5842250003706511
  0.5415757329046116  0.3642611802053182  0.5837866110303835
  0.8776144935940593  0.3615248556265058  0.5815363721057238
  0.2061459188547872  0.6988164727869446  0.5810800624783568
  0.5320538463510189  0.7018341105459243  0.5771011568083324
  0.8768102213464388  0.7004786096891849  0.5844272361735108
  0.2076318735791034  0.0305086344739607  0.5832633330858101
  0.5416555420077529  0.0299659009948883  0.5835058381425071
  0.8755504182244707  0.0296714343419353  0.5826922372073966
  0.2069310140298413  0.3632458584174429  0.9172864417939550
  0.5303838868578197  0.3649990792212989  0.9105437882201244
  0.8751918700721362  0.3642086276277183  0.9161500859018190
  0.2077981158548070  0.6976798123840453  0.9163581280963626
  0.5498236982799369  0.7060328606148190  0.9235738357826691
  0.8861450049423638  0.7072058341424921  0.9230050766443014
  0.2090426289052587  0.0321490935887709  0.9173942881462054
  0.5414429836716792  0.0307020756886942  0.9168424705759151
  0.8781994146873231  0.0311718255828239  0.9177259778775380
  0.0414240550616896  0.5543893983376691  0.2501931815764777
  0.3736297816278551  0.5542427410862416  0.2504303420944751
  0.7081865126668561  0.5525576413782929  0.2501261675316471
  0.0424254889162512  0.8860359285766748  0.2498007294344049
  0.3753344846665243  0.8865501185167375  0.2502940131092188
  0.7082774140180490  0.8853351075065561  0.2493025458008518
  0.0421649454158839  0.2190572471346357  0.2504101622127592
  0.3781159039162958  0.2107346373850589  0.2449537905679691
  0.7127978864580626  0.2104120133952705  0.2459698655223832
  0.0414911388232611  0.5526297516664513  0.5829912125237868
  0.3714732637189897  0.5519600175009600  0.5819495265425374
  0.7142474196774558  0.5436515335910315  0.5771187737217005
  0.0417267413162890  0.8862268732406591  0.5829126850886226
  0.3730317604663682  0.8874830174981483  0.5827209233104611
  0.7090708790489373  0.8862979315649966  0.5832878317115160
  0.0412914309877124  0.2179580474821421  0.5827794796129240
  0.3748443716013483  0.2156286687793312  0.5837923395052655
  0.7087382129155344  0.2157177141153284  0.5834361165389126
  0.0417245614677952  0.5522784540996071  0.9162344005556236
  0.3691733521908915  0.5512416551452333  0.9226298134209472
  0.7054864668561507  0.5499875353746333  0.9238230548046857
  0.0460564838677158  0.8881559449461065  0.9182571022401476
  0.3742745969060763  0.8856284703552717  0.9163044277647714
  0.7088627778850309  0.8868841965152043  0.9163022929818538
  0.0413188744315249  0.2189834971693188  0.9166884192151272
  0.3746917644348144  0.2189557170435918  0.9174051078235266
  0.7112779245612586  0.2108603623102425  0.9102327939105948

  0.00000000E+00  0.00000000E+00  0.00000000E+00
  0.00000000E+00  0.00000000E+00  0.00000000E+00
  0.00000000E+00  0.00000000E+00  0.00000000E+00
  0.00000000E+00  0.00000000E+00  0.00000000E+00
  0.00000000E+00  0.00000000E+00  0.00000000E+00
  0.00000000E+00  0.00000000E+00  0.00000000E+00
  0.00000000E+00  0.00000000E+00  0.00000000E+00
  0.00000000E+00  0.00000000E+00  0.00000000E+00
  0.00000000E+00  0.00000000E+00  0.00000000E+00
  0.00000000E+00  0.00000000E+00  0.00000000E+00
  0.00000000E+00  0.00000000E+00  0.00000000E+00
  0.00000000E+00  0.00000000E+00  0.00000000E+00
  0.00000000E+00  0.00000000E+00  0.00000000E+00
  0.00000000E+00  0.00000000E+00  0.00000000E+00
  0.00000000E+00  0.00000000E+00  0.00000000E+00
  0.00000000E+00  0.00000000E+00  0.00000000E+00
  0.00000000E+00  0.00000000E+00  0.00000000E+00
  0.00000000E+00  0.00000000E+00  0.00000000E+00
  0.00000000E+00  0.00000000E+00  0.00000000E+00
  0.00000000E+00  0.00000000E+00  0.00000000E+00
  0.00000000E+00  0.00000000E+00  0.00000000E+00
  0.00000000E+00  0.00000000E+00  0.00000000E+00
  0.00000000E+00  0.00000000E+00  0.00000000E+00
  0.00000000E+00  0.00000000E+00  0.00000000E+00
  0.00000000E+00  0.00000000E+00  0.00000000E+00
  0.00000000E+00  0.00000000E+00  0.00000000E+00
  0.00000000E+00  0.00000000E+00  0.00000000E+00
  0.00000000E+00  0.00000000E+00  0.00000000E+00
  0.00000000E+00  0.00000000E+00  0.00000000E+00
  0.00000000E+00  0.00000000E+00  0.00000000E+00
  0.00000000E+00  0.00000000E+00  0.00000000E+00
  0.00000000E+00  0.00000000E+00  0.00000000E+00
  0.00000000E+00  0.00000000E+00  0.00000000E+00
  0.00000000E+00  0.00000000E+00  0.00000000E+00
  0.00000000E+00  0.00000000E+00  0.00000000E+00
  0.00000000E+00  0.00000000E+00  0.00000000E+00
  0.00000000E+00  0.00000000E+00  0.00000000E+00
  0.00000000E+00  0.00000000E+00  0.00000000E+00
  0.00000000E+00  0.00000000E+00  0.00000000E+00
  0.00000000E+00  0.00000000E+00  0.00000000E+00
  0.00000000E+00  0.00000000E+00  0.00000000E+00
  0.00000000E+00  0.00000000E+00  0.00000000E+00
  0.00000000E+00  0.00000000E+00  0.00000000E+00
  0.00000000E+00  0.00000000E+00  0.00000000E+00
  0.00000000E+00  0.00000000E+00  0.00000000E+00
  0.00000000E+00  0.00000000E+00  0.00000000E+00
  0.00000000E+00  0.00000000E+00  0.00000000E+00
  0.00000000E+00  0.00000000E+00  0.00000000E+00
  0.00000000E+00  0.00000000E+00  0.00000000E+00
  0.00000000E+00  0.00000000E+00  0.00000000E+00
  0.00000000E+00  0.00000000E+00  0.00000000E+00
  0.00000000E+00  0.00000000E+00  0.00000000E+00
  0.00000000E+00  0.00000000E+00  0.00000000E+00
  0.00000000E+00  0.00000000E+00  0.00000000E+00
  0.00000000E+00  0.00000000E+00  0.00000000E+00
  0.00000000E+00  0.00000000E+00  0.00000000E+00
  0.00000000E+00  0.00000000E+00  0.00000000E+00
  0.00000000E+00  0.00000000E+00  0.00000000E+00
  0.00000000E+00  0.00000000E+00  0.00000000E+00
  0.00000000E+00  0.00000000E+00  0.00000000E+00
  0.00000000E+00  0.00000000E+00  0.00000000E+00
  0.00000000E+00  0.00000000E+00  0.00000000E+00
  0.00000000E+00  0.00000000E+00  0.00000000E+00
  0.00000000E+00  0.00000000E+00  0.00000000E+00
  0.00000000E+00  0.00000000E+00  0.00000000E+00
  0.00000000E+00  0.00000000E+00  0.00000000E+00
  0.00000000E+00  0.00000000E+00  0.00000000E+00
  0.00000000E+00  0.00000000E+00  0.00000000E+00
  0.00000000E+00  0.00000000E+00  0.00000000E+00
  0.00000000E+00  0.00000000E+00  0.00000000E+00
  0.00000000E+00  0.00000000E+00  0.00000000E+00
  0.00000000E+00  0.00000000E+00  0.00000000E+00
  0.00000000E+00  0.00000000E+00  0.00000000E+00
  0.00000000E+00  0.00000000E+00  0.00000000E+00
  0.00000000E+00  0.00000000E+00  0.00000000E+00
  0.00000000E+00  0.00000000E+00  0.00000000E+00
  0.00000000E+00  0.00000000E+00  0.00000000E+00
  0.00000000E+00  0.00000000E+00  0.00000000E+00
  0.00000000E+00  0.00000000E+00  0.00000000E+00
  0.00000000E+00  0.00000000E+00  0.00000000E+00
  0.00000000E+00  0.00000000E+00  0.00000000E+00
  0.00000000E+00  0.00000000E+00  0.00000000E+00
  0.00000000E+00  0.00000000E+00  0.00000000E+00
  0.00000000E+00  0.00000000E+00  0.00000000E+00
  0.00000000E+00  0.00000000E+00  0.00000000E+00
  0.00000000E+00  0.00000000E+00  0.00000000E+00
  0.00000000E+00  0.00000000E+00  0.00000000E+00
  0.00000000E+00  0.00000000E+00  0.00000000E+00
  0.00000000E+00  0.00000000E+00  0.00000000E+00
  0.00000000E+00  0.00000000E+00  0.00000000E+00
  0.00000000E+00  0.00000000E+00  0.00000000E+00
  0.00000000E+00  0.00000000E+00  0.00000000E+00
  0.00000000E+00  0.00000000E+00  0.00000000E+00
  0.00000000E+00  0.00000000E+00  0.00000000E+00
  0.00000000E+00  0.00000000E+00  0.00000000E+00
  0.00000000E+00  0.00000000E+00  0.00000000E+00
  0.00000000E+00  0.00000000E+00  0.00000000E+00
  0.00000000E+00  0.00000000E+00  0.00000000E+00
  0.00000000E+00  0.00000000E+00  0.00000000E+00
  0.00000000E+00  0.00000000E+00  0.00000000E+00
  0.00000000E+00  0.00000000E+00  0.00000000E+00
  0.00000000E+00  0.00000000E+00  0.00000000E+00
  0.00000000E+00  0.00000000E+00  0.00000000E+00
  0.00000000E+00  0.00000000E+00  0.00000000E+00
  0.00000000E+00  0.00000000E+00  0.00000000E+00
  0.00000000E+00  0.00000000E+00  0.00000000E+00
  0.00000000E+00  0.00000000E+00  0.00000000E+00
  0.00000000E+00  0.00000000E+00  0.00000000E+00
  0.00000000E+00  0.00000000E+00  0.00000000E+00
  0.00000000E+00  0.00000000E+00  0.00000000E+00
  0.00000000E+00  0.00000000E+00  0.00000000E+00
  0.00000000E+00  0.00000000E+00  0.00000000E+00
  0.00000000E+00  0.00000000E+00  0.00000000E+00
  0.00000000E+00  0.00000000E+00  0.00000000E+00
  0.00000000E+00  0.00000000E+00  0.00000000E+00
  0.00000000E+00  0.00000000E+00  0.00000000E+00
  0.00000000E+00  0.00000000E+00  0.00000000E+00
  0.00000000E+00  0.00000000E+00  0.00000000E+00
  0.00000000E+00  0.00000000E+00  0.00000000E+00
  0.00000000E+00  0.00000000E+00  0.00000000E+00
  0.00000000E+00  0.00000000E+00  0.00000000E+00
  0.00000000E+00  0.00000000E+00  0.00000000E+00
  0.00000000E+00  0.00000000E+00  0.00000000E+00
  0.00000000E+00  0.00000000E+00  0.00000000E+00
  0.00000000E+00  0.00000000E+00  0.00000000E+00
  0.00000000E+00  0.00000000E+00  0.00000000E+00
  0.00000000E+00  0.00000000E+00  0.00000000E+00
  0.00000000E+00  0.00000000E+00  0.00000000E+00
  0.00000000E+00  0.00000000E+00  0.00000000E+00
  0.00000000E+00  0.00000000E+00  0.00000000E+00
  0.00000000E+00  0.00000000E+00  0.00000000E+00
  0.00000000E+00  0.00000000E+00  0.00000000E+00
  0.00000000E+00  0.00000000E+00  0.00000000E+00
  0.00000000E+00  0.00000000E+00  0.00000000E+00
  0.00000000E+00  0.00000000E+00  0.00000000E+00
  0.00000000E+00  0.00000000E+00  0.00000000E+00
  0.00000000E+00  0.00000000E+00  0.00000000E+00
  0.00000000E+00  0.00000000E+00  0.00000000E+00
  0.00000000E+00  0.00000000E+00  0.00000000E+00
  0.00000000E+00  0.00000000E+00  0.00000000E+00
  0.00000000E+00  0.00000000E+00  0.00000000E+00
  0.00000000E+00  0.00000000E+00  0.00000000E+00
  0.00000000E+00  0.00000000E+00  0.00000000E+00
  0.00000000E+00  0.00000000E+00  0.00000000E+00
  0.00000000E+00  0.00000000E+00  0.00000000E+00
  0.00000000E+00  0.00000000E+00  0.00000000E+00
  0.00000000E+00  0.00000000E+00  0.00000000E+00
  0.00000000E+00  0.00000000E+00  0.00000000E+00
  0.00000000E+00  0.00000000E+00  0.00000000E+00
  0.00000000E+00  0.00000000E+00  0.00000000E+00
  0.00000000E+00  0.00000000E+00  0.00000000E+00
  0.00000000E+00  0.00000000E+00  0.00000000E+00
  0.00000000E+00  0.00000000E+00  0.00000000E+00
  0.00000000E+00  0.00000000E+00  0.00000000E+00
  0.00000000E+00  0.00000000E+00  0.00000000E+00
  0.00000000E+00  0.00000000E+00  0.00000000E+00
  0.00000000E+00  0.00000000E+00  0.00000000E+00
  0.00000000E+00  0.00000000E+00  0.00000000E+00
  0.00000000E+00  0.00000000E+00  0.00000000E+00
  0.00000000E+00  0.00000000E+00  0.00000000E+00
  0.00000000E+00  0.00000000E+00  0.00000000E+00
  0.00000000E+00  0.00000000E+00  0.00000000E+00
  0.00000000E+00  0.00000000E+00  0.00000000E+00
  0.00000000E+00  0.00000000E+00  0.00000000E+00
  0.00000000E+00  0.00000000E+00  0.00000000E+00
  0.00000000E+00  0.00000000E+00  0.00000000E+00
  0.00000000E+00  0.00000000E+00  0.00000000E+00
  0.00000000E+00  0.00000000E+00  0.00000000E+00
  0.00000000E+00  0.00000000E+00  0.00000000E+00
  0.00000000E+00  0.00000000E+00  0.00000000E+00
  0.00000000E+00  0.00000000E+00  0.00000000E+00
  0.00000000E+00  0.00000000E+00  0.00000000E+00
  0.00000000E+00  0.00000000E+00  0.00000000E+00
  0.00000000E+00  0.00000000E+00  0.00000000E+00
  0.00000000E+00  0.00000000E+00  0.00000000E+00
  0.00000000E+00  0.00000000E+00  0.00000000E+00
  0.00000000E+00  0.00000000E+00  0.00000000E+00
  0.00000000E+00  0.00000000E+00  0.00000000E+00
  0.00000000E+00  0.00000000E+00  0.00000000E+00
  0.00000000E+00  0.00000000E+00  0.00000000E+00
  0.00000000E+00  0.00000000E+00  0.00000000E+00
  0.00000000E+00  0.00000000E+00  0.00000000E+00
  0.00000000E+00  0.00000000E+00  0.00000000E+00
  0.00000000E+00  0.00000000E+00  0.00000000E+00
  0.00000000E+00  0.00000000E+00  0.00000000E+00
  0.00000000E+00  0.00000000E+00  0.00000000E+00
  0.00000000E+00  0.00000000E+00  0.00000000E+00
  0.00000000E+00  0.00000000E+00  0.00000000E+00
  0.00000000E+00  0.00000000E+00  0.00000000E+00
  0.00000000E+00  0.00000000E+00  0.00000000E+00
  0.00000000E+00  0.00000000E+00  0.00000000E+00
  0.00000000E+00  0.00000000E+00  0.00000000E+00
  0.00000000E+00  0.00000000E+00  0.00000000E+00
  0.00000000E+00  0.00000000E+00  0.00000000E+00
  0.00000000E+00  0.00000000E+00  0.00000000E+00
  0.00000000E+00  0.00000000E+00  0.00000000E+00
  0.00000000E+00  0.00000000E+00  0.00000000E+00
  0.00000000E+00  0.00000000E+00  0.00000000E+00
  0.00000000E+00  0.00000000E+00  0.00000000E+00
  0.00000000E+00  0.00000000E+00  0.00000000E+00
  0.00000000E+00  0.00000000E+00  0.00000000E+00
  0.00000000E+00  0.00000000E+00  0.00000000E+00
  0.00000000E+00  0.00000000E+00  0.00000000E+00
  0.00000000E+00  0.00000000E+00  0.00000000E+00
  0.00000000E+00  0.00000000E+00  0.00000000E+00
  0.00000000E+00  0.00000000E+00  0.00000000E+00
  0.00000000E+00  0.00000000E+00  0.00000000E+00
  0.00000000E+00  0.00000000E+00  0.00000000E+00
  0.00000000E+00  0.00000000E+00  0.00000000E+00
  0.00000000E+00  0.00000000E+00  0.00000000E+00
  0.00000000E+00  0.00000000E+00  0.00000000E+00
  0.00000000E+00  0.00000000E+00  0.00000000E+00
  0.00000000E+00  0.00000000E+00  0.00000000E+00
  0.00000000E+00  0.00000000E+00  0.00000000E+00
  0.00000000E+00  0.00000000E+00  0.00000000E+00
  0.00000000E+00  0.00000000E+00  0.00000000E+00
