In6 Ga48 Cu54 Se108                     
   1.0000000000000000     
    15.5867616519940437   -0.1124488630730950   -7.0502470497961234
    -3.0575457782628170   15.3043891598069379   -7.0087516632479208
     0.0594880893827338    0.0111840394413028   20.8789523463631674
   In   Ga   Cu   Se
     6    48    54   108
Direct
  0.1678978846266475  0.5012785084329607  0.0000914136765573
  0.8311500627616013  0.1659767669313226  0.0014821485325172
  0.9169697162244503  0.4159930935116094  0.4997674409825024
  0.9167899381801092  0.7492291809394942  0.4994486771112463
  0.9162153428017206  0.7499941794841618  0.8332660001511556
  0.9175195903954432  0.0815808163488043  0.8315058690310906
  0.4996218106202406  0.5011727723888981  0.0004138289284157
  0.8329583312617075  0.4999892099388958  0.0007345957215108
  0.1704484582673089  0.8341741227931863  0.0018799983366904
  0.5000340782320478  0.8334781350791260  0.0001719999732899
  0.8313805871326636  0.8336892389989998  0.0019406142435727
  0.1700419677457035  0.1686852080299559  0.0020945543696413
  0.5009350900740301  0.1663271469934458  0.0002482926902374
  0.1674549004937163  0.4999271491397721  0.3334136923873601
  0.4996541239553025  0.5001847303679128  0.3332536834220505
  0.8314072534341790  0.4977889316961921  0.3298241886213091
  0.1669558753945850  0.8336055636607753  0.3332138893192607
  0.4999890845351516  0.8346452667746433  0.3337517950975482
  0.8316146538232516  0.8346962697849563  0.3320314927390982
  0.1667681499478348  0.1658904205866207  0.3331308810615141
  0.4999888867385351  0.1665499959198726  0.3333355153523598
  0.8332045212641859  0.1635887263822653  0.3321316755699186
  0.1703292158250633  0.5010881002456671  0.6681179720897106
  0.4991642342248070  0.4998665273374101  0.6662606600624414
  0.8313148175757803  0.4969269817283362  0.6663112858485363
  0.1705555487413477  0.8345722749718760  0.6679002920832886
  0.4990723952813738  0.8333384943927840  0.6661238396075504
  0.8301545205213330  0.8310824383746791  0.6640855586784014
  0.1675287937307388  0.1670274897223294  0.6665546430507874
  0.4988206732123075  0.1669199674551294  0.6660057547613434
  0.8315109993469036  0.1678126432270659  0.6653440560276138
  0.2516057616729768  0.4165501876058286  0.1688569886315108
  0.5830894687536272  0.4171325081173620  0.1665920909040324
  0.9177519815030877  0.4183750489886293  0.1682589029038226
  0.2520439293731229  0.7533722883390439  0.1686967024809789
  0.5832077324537792  0.7507427052184852  0.1668522328573587
  0.9165397263313224  0.7503766313905516  0.1674393764028181
  0.2509827273367620  0.0833350703194355  0.1673079095962109
  0.5829921979308779  0.0832117419724980  0.1669863891201260
  0.9169422061884589  0.0813562201668745  0.1686229680883855
  0.2504153869465142  0.4156608203329100  0.4994753247640134
  0.5821129883876992  0.4158053823027501  0.4996212703230327
  0.2504345175293849  0.7503266940230446  0.4993659381133781
  0.5820618121286287  0.7506933177880768  0.4992835143770407
  0.2508690347444329  0.0834396399205062  0.4997926598821607
  0.5815544823755303  0.0838481877872042  0.4997927235848962
  0.9172109016153769  0.0835906738256540  0.5004403405683391
  0.2526588905061047  0.4156283321551371  0.8317088030916295
  0.5816468273982665  0.4168719562563439  0.8332979880027978
  0.9138729364365901  0.4169055692602868  0.8324198733404344
  0.2516606306941540  0.7497830577839224  0.8334770488856336
  0.5822119073623284  0.7491813139383368  0.8330326474338037
  0.2516239657057540  0.0839252643429944  0.8336495839139317
  0.5798861979262426  0.0839662491961377  0.8312526759319923
  0.0003265020736478  0.3360497969288900  0.0015765522736260
  0.3364655542815811  0.3326972340428398  0.0007410343103516
  0.6649771841196852  0.3351095843957950  0.0007874953559366
  0.9998996371430096  0.6682043209063266  0.0032700118872029
  0.3345541507465200  0.6689374505337398  0.9992633446954855
  0.6662475637851273  0.6664912190997327  0.0004143407315382
  0.0047056711158859  0.0003829171382677  0.0051319674588228
  0.3337839609032116  0.0002862753146857  0.0001144846888508
  0.6644518749019994  0.9972111235344059  0.9991914333334435
  0.0003288475077383  0.3312904361611473  0.3302642734985497
  0.3353852168964977  0.3327362984057913  0.3346900490786950
  0.6631154927588341  0.3322234043108452  0.3317255155733179
  0.9999314865661191  0.6675013370109752  0.3323189395575099
  0.3334375777340099  0.6669875331441588  0.3330715459105278
  0.6646792701033704  0.6657005205553332  0.3318506962189645
  0.0011643461880340  0.9991482964968412  0.3347035943836190
  0.3331688558182861  0.0015590901666727  0.3342932670367702
  0.6668676701740566  0.0008272329706926  0.3340367332402749
  0.0021907999131869  0.3327583153953526  0.6698238111513390
  0.3336020507139779  0.3335002876205024  0.6653108113684141
  0.6647348673849791  0.3333882837147684  0.6654888315246552
  0.0031904657216160  0.6677601446545296  0.6677181694522574
  0.3338117994229108  0.6666033672090990  0.6662620317680634
  0.6619932760598104  0.6634838702106762  0.6631613595032491
  0.0015126923378972  0.0009367340039432  0.6653193873973962
  0.3321947963962657  0.9995066850685390  0.6657867792564147
  0.6633087823590884  0.9986303248495290  0.6640839024308178
  0.0838636625510176  0.5862331390539950  0.1698222561508445
  0.4189194097384643  0.5841614095213004  0.1686359418692760
  0.7499294597502839  0.5838756271004613  0.1662352577070791
  0.0838966297202433  0.9159558492793849  0.1670846729129352
  0.4181303359792707  0.9172768714237947  0.1678617689907256
  0.7485182492880895  0.9165781468064580  0.1662681753519237
  0.0869631065038092  0.2509401832873124  0.1688292617301528
  0.4170262795765964  0.2494132183829478  0.1668387237446112
  0.7477910693019396  0.2505318692423373  0.1689377019015978
  0.0877866033859931  0.5820836832328382  0.4986949776913505
  0.4153921900299338  0.5828128392052960  0.4991222503752439
  0.7450166834553684  0.5819088865750004  0.4987090666543779
  0.0857159358665669  0.9175480187971417  0.4984194958550958
  0.4155864606164386  0.9163273869927124  0.4993912303172863
  0.7490755177195325  0.9202045526250799  0.5002631469667733
  0.0849503546595187  0.2480592528504673  0.5005792426800539
  0.4161912847967599  0.2500242420224623  0.4996387588007778
  0.7469157222392937  0.2476857761850297  0.4981795107107914
  0.0848692203178629  0.5819120312125889  0.8320725194839227
  0.4181303158477832  0.5836944271637918  0.8344339782035277
  0.7463550904937151  0.5824533917387171  0.8336190111452098
  0.0876331996387449  0.9167017894281670  0.8336652021776203
  0.4184341502805040  0.9168599483740039  0.8343791330377002
  0.7437567778049043  0.9148472790227302  0.8313984152138971
  0.0843526853707885  0.2490046380827025  0.8321296581723914
  0.4166863710133981  0.2504413774773511  0.8332787245309490
  0.7480714683881260  0.2535119107089940  0.8318115145508926
  0.1230822309928996  0.4590479181317946  0.0901674058249569
  0.4564419716725254  0.4593045976667227  0.0838396569714703
  0.7896075796597088  0.4581878897159086  0.0839985622238544
  0.1238457285964500  0.7917651635132330  0.0835174001041494
  0.4569466799244921  0.7929409690401812  0.0837734860332944
  0.7884150534000938  0.7914182558766214  0.0847781011759849
  0.1250659762087949  0.1265123378208628  0.0846693669485461
  0.4567111724751243  0.1250788937836518  0.0834600878161353
  0.7859996355313115  0.1214994154162810  0.0900869154562827
  0.1235586643954178  0.4557913337776753  0.4151206045617784
  0.4563798697839587  0.4585422719242018  0.4167435903974237
  0.7817249602934950  0.4597697762047943  0.4109797362426022
  0.1231438621821397  0.7914376278312503  0.4158831994560259
  0.4554849933645500  0.7922627852719515  0.4161578262659802
  0.7820352588794961  0.7946531247703987  0.4120440892651516
  0.1236976817425557  0.1237770656081452  0.4164574768408542
  0.4556510968610041  0.1259207369067852  0.4165736104390518
  0.7900456739383159  0.1247371432321813  0.4169776013924746
  0.1250405167378545  0.4574356400595931  0.7497932634481828
  0.4555125218642004  0.4587846049230961  0.7497656563188997
  0.7863096206726752  0.4584307129216114  0.7502320044310338
  0.1256638723894739  0.7919831061665334  0.7502398897199285
  0.4561595767813245  0.7916626333930665  0.7498297511847127
  0.7797049753607581  0.7921419592802224  0.7440594324896210
  0.1243037948834598  0.1248255680719765  0.7497948846689795
  0.4534877728076836  0.1251275709223449  0.7482226764943576
  0.7815884826348167  0.1271369886589326  0.7449578674923956
  0.3023403011006209  0.6339141672225850  0.0888078626811790
  0.6267046226725981  0.6256168256743351  0.0837712639729418
  0.9604407894707521  0.6247807339206517  0.0851311005922852
  0.2964652552081759  0.9593512675082820  0.0848078569743294
  0.6260658763218743  0.9580335930128641  0.0835680633537805
  0.9600783116902250  0.9569881391979322  0.0845634841599718
  0.2962354119382340  0.2932923532918039  0.0847562268907609
  0.6272681540191911  0.2919339794667408  0.0839607902465431
  0.9670626877972452  0.2976371342237414  0.0886875020107567
  0.2936349571134969  0.6251615447317107  0.4160766133449343
  0.6255901403225934  0.6257706172662907  0.4160214165236553
  0.9627445730414053  0.6163389092180935  0.4110957739977508
  0.2936728143810754  0.9583322860318546  0.4164339775296213
  0.6259222446712869  0.9601801636417875  0.4167902189160699
  0.9603015736300264  0.9579830154784545  0.4172085308777440
  0.2936571011317639  0.2906475168338361  0.4163032585280106
  0.6262218311091132  0.2916086534785549  0.4162940340315870
  0.9631708844704150  0.2832844217786743  0.4110259094849127
  0.2968089865326817  0.6257271433996507  0.7511129427780858
  0.6259180408742964  0.6246079492349992  0.7493838017385954
  0.9615695025531537  0.6166105759431701  0.7441909175971873
  0.2967517483920403  0.9593508988918131  0.7514831996596811
  0.6248643173943051  0.9593219601462479  0.7490023621791266
  0.9630689016038687  0.9484205732573656  0.7428795143279316
  0.2952461699061644  0.2908811229531381  0.7482949636211842
  0.6243260285038588  0.2929762076351778  0.7485762271257599
  0.9600401031884545  0.2915041529911520  0.7517531027929039
  0.2112831437227811  0.3732199100384364  0.2525004596727669
  0.5402350521263202  0.3731902432909635  0.2490793031301450
  0.8741729547006969  0.3707293032676304  0.2485629827900482
  0.2092296092602979  0.7074995317360049  0.2502784549269137
  0.5416452040147561  0.7079398200369198  0.2504375688513676
  0.8744031576796942  0.7070126797574048  0.2504787849396948
  0.2082938229981721  0.0391266506903136  0.2497779200240231
  0.5422249092316704  0.0400661903064403  0.2507228242687631
  0.8752194293637530  0.0362452265135076  0.2506554595601358
  0.2082939385136413  0.3725101894789731  0.5827256502623115
  0.5400367588292241  0.3727525522801756  0.5826561433947433
  0.8725583800218786  0.3678180277933549  0.5874143727137806
  0.2098731814930659  0.7068054147442098  0.5829270951337335
  0.5391695870499618  0.7061289027397493  0.5815380687421339
  0.8716406261746030  0.7009550458335809  0.5865077678294526
  0.2089883757202244  0.0404519911794807  0.5828921307461101
  0.5391118197632778  0.0395401037076226  0.5820553074898456
  0.8753564042083539  0.0406629897405821  0.5840041664232203
  0.2125819827980422  0.3666316373187328  0.9118781978606449
  0.5402929482833656  0.3739326683198954  0.9169762198586184
  0.8749705716589773  0.3733041592748094  0.9172613719789950
  0.2084520658712918  0.7059119127824118  0.9159846997812835
  0.5420355804052335  0.7064806612692749  0.9173355070339824
  0.8711676219171238  0.7043588430218790  0.9219004037861041
  0.2098855813278533  0.0412664814866233  0.9172288827347614
  0.5426593378213767  0.0399671152982819  0.9166789086134699
  0.8751121800986397  0.0281622771477501  0.9169019926615718
  0.0425299647340580  0.5446387066462606  0.2514986136597486
  0.3753010312430760  0.5443022789319727  0.2503734332711716
  0.7075770873696499  0.5443305628779029  0.2488555766546199
  0.0418372167151517  0.8768726679295753  0.2502416853030098
  0.3760875351564934  0.8801831851915622  0.2517944732172239
  0.7069639601761395  0.8783656460693408  0.2494848276131449
  0.0420624116611918  0.2079974548242518  0.2484346921334435
  0.3755680648192055  0.2103649430457963  0.2502075851457874
  0.7076712451742182  0.2099057855462547  0.2518760618947624
  0.0506475861288749  0.5501502575094719  0.5870564886266934
  0.3744824394921764  0.5433275175212344  0.5826553458350290
  0.7069882031612380  0.5416254173853901  0.5829520119096898
  0.0505430426535085  0.8829637479762837  0.5865299182184813
  0.3745400830994043  0.8774629041952409  0.5829352056498536
  0.7071993169880173  0.8774459049435563  0.5816592835448517
  0.0421154792010725  0.2107751828074953  0.5840434576388134
  0.3748179661176749  0.2105645821327187  0.5824850339647654
  0.7059558417354808  0.2105692313450547  0.5822636103339605
  0.0339273646547937  0.5469071009055213  0.9120474324407013
  0.3752498479889894  0.5446029057085227  0.9168973002385812
  0.7069839797627111  0.5429233847167225  0.9175355986547586
  0.0506096667590654  0.8837608133297792  0.9218659718502735
  0.3756103996420492  0.8774500423270055  0.9170138193534569
  0.7066366228117218  0.8758582371752297  0.9166433028485983
  0.0491566518218818  0.2180044814578537  0.9221270449106314
  0.3768505634120132  0.2101750438605663  0.9168645461114693
  0.7005963042589940  0.2132584449552013  0.9114347514264765

  0.00000000E+00  0.00000000E+00  0.00000000E+00
  0.00000000E+00  0.00000000E+00  0.00000000E+00
  0.00000000E+00  0.00000000E+00  0.00000000E+00
  0.00000000E+00  0.00000000E+00  0.00000000E+00
  0.00000000E+00  0.00000000E+00  0.00000000E+00
  0.00000000E+00  0.00000000E+00  0.00000000E+00
  0.00000000E+00  0.00000000E+00  0.00000000E+00
  0.00000000E+00  0.00000000E+00  0.00000000E+00
  0.00000000E+00  0.00000000E+00  0.00000000E+00
  0.00000000E+00  0.00000000E+00  0.00000000E+00
  0.00000000E+00  0.00000000E+00  0.00000000E+00
  0.00000000E+00  0.00000000E+00  0.00000000E+00
  0.00000000E+00  0.00000000E+00  0.00000000E+00
  0.00000000E+00  0.00000000E+00  0.00000000E+00
  0.00000000E+00  0.00000000E+00  0.00000000E+00
  0.00000000E+00  0.00000000E+00  0.00000000E+00
  0.00000000E+00  0.00000000E+00  0.00000000E+00
  0.00000000E+00  0.00000000E+00  0.00000000E+00
  0.00000000E+00  0.00000000E+00  0.00000000E+00
  0.00000000E+00  0.00000000E+00  0.00000000E+00
  0.00000000E+00  0.00000000E+00  0.00000000E+00
  0.00000000E+00  0.00000000E+00  0.00000000E+00
  0.00000000E+00  0.00000000E+00  0.00000000E+00
  0.00000000E+00  0.00000000E+00  0.00000000E+00
  0.00000000E+00  0.00000000E+00  0.00000000E+00
  0.00000000E+00  0.00000000E+00  0.00000000E+00
  0.00000000E+00  0.00000000E+00  0.00000000E+00
  0.00000000E+00  0.00000000E+00  0.00000000E+00
  0.00000000E+00  0.00000000E+00  0.00000000E+00
  0.00000000E+00  0.00000000E+00  0.00000000E+00
  0.00000000E+00  0.00000000E+00  0.00000000E+00
  0.00000000E+00  0.00000000E+00  0.00000000E+00
  0.00000000E+00  0.00000000E+00  0.00000000E+00
  0.00000000E+00  0.00000000E+00  0.00000000E+00
  0.00000000E+00  0.00000000E+00  0.00000000E+00
  0.00000000E+00  0.00000000E+00  0.00000000E+00
  0.00000000E+00  0.00000000E+00  0.00000000E+00
  0.00000000E+00  0.00000000E+00  0.00000000E+00
  0.00000000E+00  0.00000000E+00  0.00000000E+00
  0.00000000E+00  0.00000000E+00  0.00000000E+00
  0.00000000E+00  0.00000000E+00  0.00000000E+00
  0.00000000E+00  0.00000000E+00  0.00000000E+00
  0.00000000E+00  0.00000000E+00  0.00000000E+00
  0.00000000E+00  0.00000000E+00  0.00000000E+00
  0.00000000E+00  0.00000000E+00  0.00000000E+00
  0.00000000E+00  0.00000000E+00  0.00000000E+00
  0.00000000E+00  0.00000000E+00  0.00000000E+00
  0.00000000E+00  0.00000000E+00  0.00000000E+00
  0.00000000E+00  0.00000000E+00  0.00000000E+00
  0.00000000E+00  0.00000000E+00  0.00000000E+00
  0.00000000E+00  0.00000000E+00  0.00000000E+00
  0.00000000E+00  0.00000000E+00  0.00000000E+00
  0.00000000E+00  0.00000000E+00  0.00000000E+00
  0.00000000E+00  0.00000000E+00  0.00000000E+00
  0.00000000E+00  0.00000000E+00  0.00000000E+00
  0.00000000E+00  0.00000000E+00  0.00000000E+00
  0.00000000E+00  0.00000000E+00  0.00000000E+00
  0.00000000E+00  0.00000000E+00  0.00000000E+00
  0.00000000E+00  0.00000000E+00  0.00000000E+00
  0.00000000E+00  0.00000000E+00  0.00000000E+00
  0.00000000E+00  0.00000000E+00  0.00000000E+00
  0.00000000E+00  0.00000000E+00  0.00000000E+00
  0.00000000E+00  0.00000000E+00  0.00000000E+00
  0.00000000E+00  0.00000000E+00  0.00000000E+00
  0.00000000E+00  0.00000000E+00  0.00000000E+00
  0.00000000E+00  0.00000000E+00  0.00000000E+00
  0.00000000E+00  0.00000000E+00  0.00000000E+00
  0.00000000E+00  0.00000000E+00  0.00000000E+00
  0.00000000E+00  0.00000000E+00  0.00000000E+00
  0.00000000E+00  0.00000000E+00  0.00000000E+00
  0.00000000E+00  0.00000000E+00  0.00000000E+00
  0.00000000E+00  0.00000000E+00  0.00000000E+00
  0.00000000E+00  0.00000000E+00  0.00000000E+00
  0.00000000E+00  0.00000000E+00  0.00000000E+00
  0.00000000E+00  0.00000000E+00  0.00000000E+00
  0.00000000E+00  0.00000000E+00  0.00000000E+00
  0.00000000E+00  0.00000000E+00  0.00000000E+00
  0.00000000E+00  0.00000000E+00  0.00000000E+00
  0.00000000E+00  0.00000000E+00  0.00000000E+00
  0.00000000E+00  0.00000000E+00  0.00000000E+00
  0.00000000E+00  0.00000000E+00  0.00000000E+00
  0.00000000E+00  0.00000000E+00  0.00000000E+00
  0.00000000E+00  0.00000000E+00  0.00000000E+00
  0.00000000E+00  0.00000000E+00  0.00000000E+00
  0.00000000E+00  0.00000000E+00  0.00000000E+00
  0.00000000E+00  0.00000000E+00  0.00000000E+00
  0.00000000E+00  0.00000000E+00  0.00000000E+00
  0.00000000E+00  0.00000000E+00  0.00000000E+00
  0.00000000E+00  0.00000000E+00  0.00000000E+00
  0.00000000E+00  0.00000000E+00  0.00000000E+00
  0.00000000E+00  0.00000000E+00  0.00000000E+00
  0.00000000E+00  0.00000000E+00  0.00000000E+00
  0.00000000E+00  0.00000000E+00  0.00000000E+00
  0.00000000E+00  0.00000000E+00  0.00000000E+00
  0.00000000E+00  0.00000000E+00  0.00000000E+00
  0.00000000E+00  0.00000000E+00  0.00000000E+00
  0.00000000E+00  0.00000000E+00  0.00000000E+00
  0.00000000E+00  0.00000000E+00  0.00000000E+00
  0.00000000E+00  0.00000000E+00  0.00000000E+00
  0.00000000E+00  0.00000000E+00  0.00000000E+00
  0.00000000E+00  0.00000000E+00  0.00000000E+00
  0.00000000E+00  0.00000000E+00  0.00000000E+00
  0.00000000E+00  0.00000000E+00  0.00000000E+00
  0.00000000E+00  0.00000000E+00  0.00000000E+00
  0.00000000E+00  0.00000000E+00  0.00000000E+00
  0.00000000E+00  0.00000000E+00  0.00000000E+00
  0.00000000E+00  0.00000000E+00  0.00000000E+00
  0.00000000E+00  0.00000000E+00  0.00000000E+00
  0.00000000E+00  0.00000000E+00  0.00000000E+00
  0.00000000E+00  0.00000000E+00  0.00000000E+00
  0.00000000E+00  0.00000000E+00  0.00000000E+00
  0.00000000E+00  0.00000000E+00  0.00000000E+00
  0.00000000E+00  0.00000000E+00  0.00000000E+00
  0.00000000E+00  0.00000000E+00  0.00000000E+00
  0.00000000E+00  0.00000000E+00  0.00000000E+00
  0.00000000E+00  0.00000000E+00  0.00000000E+00
  0.00000000E+00  0.00000000E+00  0.00000000E+00
  0.00000000E+00  0.00000000E+00  0.00000000E+00
  0.00000000E+00  0.00000000E+00  0.00000000E+00
  0.00000000E+00  0.00000000E+00  0.00000000E+00
  0.00000000E+00  0.00000000E+00  0.00000000E+00
  0.00000000E+00  0.00000000E+00  0.00000000E+00
  0.00000000E+00  0.00000000E+00  0.00000000E+00
  0.00000000E+00  0.00000000E+00  0.00000000E+00
  0.00000000E+00  0.00000000E+00  0.00000000E+00
  0.00000000E+00  0.00000000E+00  0.00000000E+00
  0.00000000E+00  0.00000000E+00  0.00000000E+00
  0.00000000E+00  0.00000000E+00  0.00000000E+00
  0.00000000E+00  0.00000000E+00  0.00000000E+00
  0.00000000E+00  0.00000000E+00  0.00000000E+00
  0.00000000E+00  0.00000000E+00  0.00000000E+00
  0.00000000E+00  0.00000000E+00  0.00000000E+00
  0.00000000E+00  0.00000000E+00  0.00000000E+00
  0.00000000E+00  0.00000000E+00  0.00000000E+00
  0.00000000E+00  0.00000000E+00  0.00000000E+00
  0.00000000E+00  0.00000000E+00  0.00000000E+00
  0.00000000E+00  0.00000000E+00  0.00000000E+00
  0.00000000E+00  0.00000000E+00  0.00000000E+00
  0.00000000E+00  0.00000000E+00  0.00000000E+00
  0.00000000E+00  0.00000000E+00  0.00000000E+00
  0.00000000E+00  0.00000000E+00  0.00000000E+00
  0.00000000E+00  0.00000000E+00  0.00000000E+00
  0.00000000E+00  0.00000000E+00  0.00000000E+00
  0.00000000E+00  0.00000000E+00  0.00000000E+00
  0.00000000E+00  0.00000000E+00  0.00000000E+00
  0.00000000E+00  0.00000000E+00  0.00000000E+00
  0.00000000E+00  0.00000000E+00  0.00000000E+00
  0.00000000E+00  0.00000000E+00  0.00000000E+00
  0.00000000E+00  0.00000000E+00  0.00000000E+00
  0.00000000E+00  0.00000000E+00  0.00000000E+00
  0.00000000E+00  0.00000000E+00  0.00000000E+00
  0.00000000E+00  0.00000000E+00  0.00000000E+00
  0.00000000E+00  0.00000000E+00  0.00000000E+00
  0.00000000E+00  0.00000000E+00  0.00000000E+00
  0.00000000E+00  0.00000000E+00  0.00000000E+00
  0.00000000E+00  0.00000000E+00  0.00000000E+00
  0.00000000E+00  0.00000000E+00  0.00000000E+00
  0.00000000E+00  0.00000000E+00  0.00000000E+00
  0.00000000E+00  0.00000000E+00  0.00000000E+00
  0.00000000E+00  0.00000000E+00  0.00000000E+00
  0.00000000E+00  0.00000000E+00  0.00000000E+00
  0.00000000E+00  0.00000000E+00  0.00000000E+00
  0.00000000E+00  0.00000000E+00  0.00000000E+00
  0.00000000E+00  0.00000000E+00  0.00000000E+00
  0.00000000E+00  0.00000000E+00  0.00000000E+00
  0.00000000E+00  0.00000000E+00  0.00000000E+00
  0.00000000E+00  0.00000000E+00  0.00000000E+00
  0.00000000E+00  0.00000000E+00  0.00000000E+00
  0.00000000E+00  0.00000000E+00  0.00000000E+00
  0.00000000E+00  0.00000000E+00  0.00000000E+00
  0.00000000E+00  0.00000000E+00  0.00000000E+00
  0.00000000E+00  0.00000000E+00  0.00000000E+00
  0.00000000E+00  0.00000000E+00  0.00000000E+00
  0.00000000E+00  0.00000000E+00  0.00000000E+00
  0.00000000E+00  0.00000000E+00  0.00000000E+00
  0.00000000E+00  0.00000000E+00  0.00000000E+00
  0.00000000E+00  0.00000000E+00  0.00000000E+00
  0.00000000E+00  0.00000000E+00  0.00000000E+00
  0.00000000E+00  0.00000000E+00  0.00000000E+00
  0.00000000E+00  0.00000000E+00  0.00000000E+00
  0.00000000E+00  0.00000000E+00  0.00000000E+00
  0.00000000E+00  0.00000000E+00  0.00000000E+00
  0.00000000E+00  0.00000000E+00  0.00000000E+00
  0.00000000E+00  0.00000000E+00  0.00000000E+00
  0.00000000E+00  0.00000000E+00  0.00000000E+00
  0.00000000E+00  0.00000000E+00  0.00000000E+00
  0.00000000E+00  0.00000000E+00  0.00000000E+00
  0.00000000E+00  0.00000000E+00  0.00000000E+00
  0.00000000E+00  0.00000000E+00  0.00000000E+00
  0.00000000E+00  0.00000000E+00  0.00000000E+00
  0.00000000E+00  0.00000000E+00  0.00000000E+00
  0.00000000E+00  0.00000000E+00  0.00000000E+00
  0.00000000E+00  0.00000000E+00  0.00000000E+00
  0.00000000E+00  0.00000000E+00  0.00000000E+00
  0.00000000E+00  0.00000000E+00  0.00000000E+00
  0.00000000E+00  0.00000000E+00  0.00000000E+00
  0.00000000E+00  0.00000000E+00  0.00000000E+00
  0.00000000E+00  0.00000000E+00  0.00000000E+00
  0.00000000E+00  0.00000000E+00  0.00000000E+00
  0.00000000E+00  0.00000000E+00  0.00000000E+00
  0.00000000E+00  0.00000000E+00  0.00000000E+00
  0.00000000E+00  0.00000000E+00  0.00000000E+00
  0.00000000E+00  0.00000000E+00  0.00000000E+00
  0.00000000E+00  0.00000000E+00  0.00000000E+00
  0.00000000E+00  0.00000000E+00  0.00000000E+00
  0.00000000E+00  0.00000000E+00  0.00000000E+00
  0.00000000E+00  0.00000000E+00  0.00000000E+00
  0.00000000E+00  0.00000000E+00  0.00000000E+00
  0.00000000E+00  0.00000000E+00  0.00000000E+00
  0.00000000E+00  0.00000000E+00  0.00000000E+00
  0.00000000E+00  0.00000000E+00  0.00000000E+00
  0.00000000E+00  0.00000000E+00  0.00000000E+00
  0.00000000E+00  0.00000000E+00  0.00000000E+00
  0.00000000E+00  0.00000000E+00  0.00000000E+00
  0.00000000E+00  0.00000000E+00  0.00000000E+00
  0.00000000E+00  0.00000000E+00  0.00000000E+00
