In30 Ga24 Cu24 Ag30 Se108               
   1.0000000000000000     
    16.2846953089781898   -0.0437634265665080   -7.3910465377984522
    -3.2779042895059494   15.9615947216783649   -7.3032216921162680
     0.0200542383950170   -0.0811332956274406   21.6758662720315058
   In   Ga   Cu   Ag   Se
    30    24    24    30   108
Direct
  0.1722541203400354  0.5003153182352875  0.0009562427086180
  0.8363749211436087  0.5033487171364470  0.0044193077529471
  0.4959979984156462  0.8318184511515696  0.0012086556134676
  0.8338486666996090  0.8284091609421935  0.0005144422655121
  0.1667710967662330  0.1674367576946878  0.9969516585618550
  0.4981440763024878  0.1723413256469684  0.0050215062993431
  0.8339592720404312  0.1744736920744003  0.0020813481288897
  0.1627471590733407  0.8266727225831119  0.3303860110177510
  0.8318856525304312  0.8300417580438335  0.3326566015054198
  0.5089837994133077  0.1653977868434922  0.3338527209646216
  0.8250978038152113  0.1688115464409634  0.3322479123163404
  0.1630538785136508  0.5034397616958159  0.6687421532021460
  0.5001369432181377  0.5018921064127895  0.6622279268262048
  0.1633858806393818  0.8333662138608844  0.6685326512506222
  0.4990201906156315  0.8357712133789335  0.6646705733448002
  0.1682596034459962  0.1655401464210939  0.6701174610814107
  0.8354374129485151  0.1638676341614769  0.6663044006174630
  0.2538279922286151  0.4205664851876136  0.1698083188692650
  0.2578795552136128  0.7467722494325031  0.1665322482394913
  0.5792642690509808  0.7485594842064174  0.1675401134603973
  0.2493663800131998  0.0838524237752907  0.1682777166716036
  0.9182524654968915  0.0861040572739853  0.1693216707017413
  0.2446074308228035  0.4199526202224177  0.4952113760063384
  0.2493361741607458  0.7518616974088772  0.5005473824763129
  0.2491327001823080  0.0767329353001927  0.4970068038421971
  0.9110679416084437  0.0786732036398590  0.4987926973079340
  0.5795176923744947  0.4144385615601678  0.8348917807705831
  0.9219691564559511  0.4171261107579625  0.8323231047956412
  0.5811991666599923  0.7481989213915483  0.8332977670506310
  0.5786925366551969  0.0889007622833446  0.8335929496607832
  0.4960342065096768  0.4959818932867677  0.0011560546489164
  0.1714784985895790  0.8268526284954447  0.9980029161116519
  0.1591879375552807  0.4993607577611812  0.3268822341885951
  0.5097808314923000  0.5051819038547052  0.3350270693311828
  0.8280916235409990  0.5010517634936491  0.3329746351979139
  0.5076072041643869  0.8340740345315254  0.3375924370425807
  0.1648298975238873  0.1717831980637214  0.3339102831263077
  0.8334617062012555  0.4976865121649610  0.6604446684958134
  0.8403708335298603  0.8339322675540970  0.6692240105424503
  0.4963513663834291  0.1636630367424203  0.6641445597259619
  0.5830550245040698  0.4240487168300078  0.1709635589595635
  0.9186852828407197  0.4190413388733063  0.1704354755749549
  0.9142990620764166  0.7487679411194179  0.1653893675705476
  0.5830515843704092  0.0789712318153377  0.1687462488799554
  0.5914059540537480  0.4172594168167478  0.4963535491563960
  0.9107376956026840  0.4183141052150603  0.4958302716924905
  0.5888996522954031  0.7535698211790844  0.4992497138765515
  0.9100100822272168  0.7509026797829392  0.4991153784813989
  0.5884025535623323  0.0784986240016323  0.4992704336229394
  0.2531257574909063  0.4130769274962560  0.8379423457173090
  0.2473678551382932  0.7507965278539857  0.8345290347213563
  0.9247474959506050  0.7466543885746688  0.8320235493349415
  0.2484784557859996  0.0862545671951125  0.8342180382927467
  0.9207110316529281  0.0828910338941000  0.8321427966244954
  0.3378811524793193  0.3374749633713634  0.9981434685021924
  0.6608632573434718  0.3413347118448229  0.0057488617555919
  0.0017791268423792  0.6699052657378033  0.0038215574588918
  0.3342134567121207  0.6618794333355993  0.9990645690275599
  0.6697124444184013  0.6664675995762863  0.0050786891019783
  0.9967894062596443  0.3377633059802889  0.3312230551177180
  0.6656025693179686  0.3365307282173546  0.3336544172382006
  0.6666973439882469  0.6676078750982697  0.3361418846083382
  0.6639259129796997  0.9977627388429795  0.3343967498804190
  0.9991069445195535  0.6685013433642553  0.6681309842609480
  0.3305548327341299  0.6673136604832877  0.6692356921341229
  0.3328160179659676  0.0046780742941763  0.6647802816169346
  0.0788277709364991  0.5857888184592781  0.1644930612492246
  0.4255513895506056  0.5829148294829309  0.1697249455353074
  0.4197827560438441  0.9138843241753349  0.1684584300999674
  0.7466873736098592  0.9096880611366771  0.1668281735935935
  0.0846291480123682  0.2551561764680628  0.1755280741033829
  0.0824035848424458  0.9166590949245830  0.5025299936197456
  0.4229195486073110  0.9196754009415358  0.5038734988692255
  0.7450654463944844  0.9095759737689875  0.4958259255115394
  0.7487046117889662  0.2504431993680853  0.4976586803466958
  0.0843547533917715  0.9128480226068945  0.8326554845317560
  0.0886112408741795  0.2498940998490582  0.8359723719873884
  0.4162937331742640  0.2489994102860962  0.8364996602813690
  0.0017717869792477  0.3324661852941730  0.0038469581228497
  0.0099010706559497  0.9961401744882750  0.9956352696629267
  0.3279921201063658  0.9952162021603286  0.0018820801741199
  0.6649283760887599  0.9987133840143940  0.0046359667670046
  0.3375810541044615  0.3422459805293840  0.3378093151086219
  0.9961952626109181  0.6605323682396786  0.3315180821115078
  0.3462975179847447  0.6729018017048531  0.3371140195972515
  0.9941125674037679  0.9992002792451089  0.3300136198118153
  0.3332976846496933  0.9974945599352267  0.3320251711303968
  0.9961313205415223  0.3401076589339169  0.6646724529752532
  0.3282613694639807  0.3342737789070469  0.6677409100591589
  0.6594378361064557  0.3282336980039702  0.6570535030613058
  0.6689978709482105  0.6707808042873751  0.6620778967823853
  0.0013088290172831  0.9942885876322762  0.6686148825055298
  0.6632975973940205  0.9928027527778909  0.6580907691301476
  0.7406814555860919  0.5754367193558565  0.1619813844397129
  0.0866162707342255  0.9099756525083649  0.1617978784422789
  0.4214552350871230  0.2573403729709298  0.1683583782272748
  0.7499781567174040  0.2603003404663724  0.1736469845485757
  0.0770540840725218  0.5848249843094635  0.4990853258010048
  0.4133597002822711  0.5790292735450819  0.4928253596119916
  0.7567810110011237  0.5882252811811384  0.4999687091004787
  0.0717430914694575  0.2465051578583655  0.4908201083936348
  0.4169817179222690  0.2418363220301174  0.4975707901658240
  0.0827464556762223  0.5886924686828650  0.8339044564172937
  0.4113544196826595  0.5870434887443778  0.8386335562545497
  0.7578875551788826  0.5791898782343310  0.8344815046128815
  0.4072193611972992  0.9179686909385225  0.8246347612399276
  0.7615081634775294  0.9172684938920668  0.8345172974425807
  0.7460542245251034  0.2446089759870418  0.8315222462716321
  0.1245430252214135  0.4680781309589293  0.0892345417810603
  0.4582065475640107  0.4595174074920294  0.0860911039044865
  0.7929648133278207  0.4479780345161544  0.0842834590285264
  0.1267526661115781  0.7824382862882047  0.0738294483119262
  0.4453681498908111  0.7881504434084974  0.0828355896367228
  0.7875922012609564  0.7878521175061906  0.0880779112165229
  0.1245003967696121  0.1386460476979039  0.0907764712780903
  0.4623598082480456  0.1191972936194077  0.0891610851972402
  0.7900975396043179  0.1302333580507238  0.0861033003895031
  0.1145654100840332  0.4578200149349740  0.4046124104566644
  0.4745994448452606  0.4610131448660653  0.4156036863263921
  0.7888368533698369  0.4518400856826759  0.4093157344760101
  0.1174319381110109  0.7963529176836417  0.4208547666313720
  0.4711731973737372  0.8051290934996160  0.4261898838708191
  0.7849938173000339  0.7876229726849218  0.4185200113569394
  0.1253367440564901  0.1247737313930344  0.4102288443944175
  0.4702723449540116  0.1186123912327162  0.4192687770995960
  0.7789541011296279  0.1237396870975118  0.4162223941651320
  0.1349431932472172  0.4571317453208152  0.7597942884816931
  0.4568302441045944  0.4619027589077973  0.7492507253000298
  0.7945295687359817  0.4536542104294981  0.7388352991415843
  0.1203107452958250  0.7876734788350177  0.7545012878859580
  0.4496087231817540  0.7844512159526005  0.7434314012983592
  0.8065094007876326  0.7900310385095111  0.7508537072083357
  0.1256396841009817  0.1277035980375416  0.7587815446359016
  0.4477417290220131  0.1292245891792874  0.7449696832714210
  0.7971559424623251  0.1186264082883639  0.7527986934439781
  0.3091145350491971  0.6214577342464978  0.0852214061608052
  0.6152388227292747  0.6184226236101935  0.0732533119936960
  0.9650900977283143  0.6343235443280264  0.0876482198294326
  0.2924427390366802  0.9476452586157365  0.0886506213936471
  0.6285069959509002  0.9584356215974950  0.0939256776989694
  0.9592913312343185  0.9591081080801374  0.0811477549801509
  0.2956983181428683  0.2969194154067125  0.0764850009741735
  0.6232186844206637  0.3067751676095014  0.0882151597405780
  0.9666835206824089  0.2987323771414765  0.0983105687063954
  0.2806996011482923  0.6185585343659810  0.4066190492574080
  0.6248161712412212  0.6311985758569776  0.4156522838599841
  0.9429285131023448  0.6261701369505914  0.4159454801288547
  0.2987313091931725  0.9485320421849366  0.4182942807998913
  0.6301965266994785  0.9555083975987131  0.4173875812949248
  0.9649251137960988  0.9541453503149668  0.4210753732525276
  0.2878239997111436  0.2873207451641520  0.4141656027928775
  0.6362746269865482  0.2979970450796259  0.4188287320401543
  0.9520002205612599  0.3019083449055202  0.4110583231296729
  0.2894550178051318  0.6353419747263160  0.7512452312284097
  0.6307694846617906  0.6263667991517039  0.7494213627330168
  0.9531249765772074  0.6230711048295774  0.7413297579300746
  0.2852256670342612  0.9708617479752064  0.7449672372816778
  0.6282166979166135  0.9619326796919552  0.7537591158166066
  0.9613926841290734  0.9550805045617636  0.7580474681708012
  0.2986192077463414  0.2947732925750728  0.7612534286710257
  0.6162369563565520  0.2839215964847099  0.7426044264620799
  0.9703079612177063  0.2871867369478096  0.7536778639258586
  0.2018196869559716  0.3767198861521308  0.2513370546584923
  0.5522322690089965  0.3846728860995228  0.2566495426212470
  0.8810844263195889  0.3874179224128511  0.2569610794292387
  0.2047505729296830  0.6974815370982270  0.2444399827273500
  0.5437627324323415  0.7053605621509078  0.2580531371011645
  0.8713417285834879  0.7039345128185417  0.2407859564719743
  0.2046035588166006  0.0489181559114797  0.2564579769972042
  0.5434553832419553  0.0295090232685027  0.2454212217329754
  0.8611735220414616  0.0349366488955738  0.2437149200408015
  0.2019317816803650  0.3757009043663686  0.5799579813066913
  0.5390345717443381  0.3766569765382144  0.5692461664963133
  0.8666520589145108  0.3741895627134753  0.5737378675058693
  0.2136451840453120  0.7059297131636200  0.5886492722116117
  0.5420956679898339  0.7114021670931052  0.5740398250108356
  0.8862027008226931  0.7168985738258797  0.5904902965488290
  0.2049255057826187  0.0311719727428823  0.5819844340801055
  0.5371459060256711  0.0439846832753403  0.5789601703007889
  0.8660434441223259  0.0266099543026002  0.5780968618111402
  0.2111152679980677  0.3662364939980733  0.9143393807834244
  0.5362544939565268  0.3709586497487507  0.9222609108937831
  0.8737217077894428  0.3745492665299963  0.9149747725708224
  0.2194500395660341  0.7099093493321789  0.9211030541699614
  0.5504180423273581  0.7056812886457138  0.9252314550143765
  0.8889625282400218  0.7075204782666873  0.9166812338712802
  0.2033712548015032  0.0341833416464183  0.9069945657669507
  0.5385001317112952  0.0431333524740580  0.9184571483757153
  0.8835237837777683  0.0509914188212761  0.9168637594961808
  0.0407953566982400  0.5383915276208171  0.2420783636128476
  0.3902269938619654  0.5432600054023524  0.2519300215486027
  0.7044605072359360  0.5447489807367347  0.2568863913728094
  0.0338060427141755  0.8679717699955987  0.2430740862005720
  0.3896840411114226  0.8742023180675531  0.2532006683446610
  0.7062015333082456  0.8824161368633483  0.2518907800942074
  0.0457689550508178  0.2191540640804490  0.2577020690989613
  0.3792540027573637  0.2099854255948443  0.2523891206906796
  0.6923487243780002  0.2096901345814501  0.2487378513021525
  0.0279690178206380  0.5431964923105355  0.5837204537892475
  0.3697002181511309  0.5524127616421382  0.5861338664682449
  0.7119262247499165  0.5361744003458213  0.5810255509103328
  0.0348011620616404  0.8670865042578555  0.5721612702129804
  0.3745396214616150  0.8875188236956362  0.5830607381403112
  0.7168106901890070  0.8672733391631340  0.5804217287436302
  0.0395256758525093  0.2066603119607251  0.5826896421099335
  0.3772456977111389  0.2057382898029516  0.5871732255858078
  0.7070457599040623  0.2013889336924208  0.5729864454664479
  0.0431121413378293  0.5520094416029053  0.9246461354524840
  0.3719662171431324  0.5363745230888526  0.9227663799893762
  0.7060310482372145  0.5480632601428255  0.9220524784696380
  0.0515546169318810  0.8645967630249558  0.9120363912092060
  0.3673528524649825  0.8690450901629916  0.9094221858322982
  0.7097268606266951  0.8757086523978685  0.9162861564400160
  0.0378606447133620  0.2068598099519505  0.9075397869136239
  0.3681768823931222  0.2115098564986226  0.9140402190326071
  0.7016990291480525  0.2231128687142245  0.9258913119014238

  0.00000000E+00  0.00000000E+00  0.00000000E+00
  0.00000000E+00  0.00000000E+00  0.00000000E+00
  0.00000000E+00  0.00000000E+00  0.00000000E+00
  0.00000000E+00  0.00000000E+00  0.00000000E+00
  0.00000000E+00  0.00000000E+00  0.00000000E+00
  0.00000000E+00  0.00000000E+00  0.00000000E+00
  0.00000000E+00  0.00000000E+00  0.00000000E+00
  0.00000000E+00  0.00000000E+00  0.00000000E+00
  0.00000000E+00  0.00000000E+00  0.00000000E+00
  0.00000000E+00  0.00000000E+00  0.00000000E+00
  0.00000000E+00  0.00000000E+00  0.00000000E+00
  0.00000000E+00  0.00000000E+00  0.00000000E+00
  0.00000000E+00  0.00000000E+00  0.00000000E+00
  0.00000000E+00  0.00000000E+00  0.00000000E+00
  0.00000000E+00  0.00000000E+00  0.00000000E+00
  0.00000000E+00  0.00000000E+00  0.00000000E+00
  0.00000000E+00  0.00000000E+00  0.00000000E+00
  0.00000000E+00  0.00000000E+00  0.00000000E+00
  0.00000000E+00  0.00000000E+00  0.00000000E+00
  0.00000000E+00  0.00000000E+00  0.00000000E+00
  0.00000000E+00  0.00000000E+00  0.00000000E+00
  0.00000000E+00  0.00000000E+00  0.00000000E+00
  0.00000000E+00  0.00000000E+00  0.00000000E+00
  0.00000000E+00  0.00000000E+00  0.00000000E+00
  0.00000000E+00  0.00000000E+00  0.00000000E+00
  0.00000000E+00  0.00000000E+00  0.00000000E+00
  0.00000000E+00  0.00000000E+00  0.00000000E+00
  0.00000000E+00  0.00000000E+00  0.00000000E+00
  0.00000000E+00  0.00000000E+00  0.00000000E+00
  0.00000000E+00  0.00000000E+00  0.00000000E+00
  0.00000000E+00  0.00000000E+00  0.00000000E+00
  0.00000000E+00  0.00000000E+00  0.00000000E+00
  0.00000000E+00  0.00000000E+00  0.00000000E+00
  0.00000000E+00  0.00000000E+00  0.00000000E+00
  0.00000000E+00  0.00000000E+00  0.00000000E+00
  0.00000000E+00  0.00000000E+00  0.00000000E+00
  0.00000000E+00  0.00000000E+00  0.00000000E+00
  0.00000000E+00  0.00000000E+00  0.00000000E+00
  0.00000000E+00  0.00000000E+00  0.00000000E+00
  0.00000000E+00  0.00000000E+00  0.00000000E+00
  0.00000000E+00  0.00000000E+00  0.00000000E+00
  0.00000000E+00  0.00000000E+00  0.00000000E+00
  0.00000000E+00  0.00000000E+00  0.00000000E+00
  0.00000000E+00  0.00000000E+00  0.00000000E+00
  0.00000000E+00  0.00000000E+00  0.00000000E+00
  0.00000000E+00  0.00000000E+00  0.00000000E+00
  0.00000000E+00  0.00000000E+00  0.00000000E+00
  0.00000000E+00  0.00000000E+00  0.00000000E+00
  0.00000000E+00  0.00000000E+00  0.00000000E+00
  0.00000000E+00  0.00000000E+00  0.00000000E+00
  0.00000000E+00  0.00000000E+00  0.00000000E+00
  0.00000000E+00  0.00000000E+00  0.00000000E+00
  0.00000000E+00  0.00000000E+00  0.00000000E+00
  0.00000000E+00  0.00000000E+00  0.00000000E+00
  0.00000000E+00  0.00000000E+00  0.00000000E+00
  0.00000000E+00  0.00000000E+00  0.00000000E+00
  0.00000000E+00  0.00000000E+00  0.00000000E+00
  0.00000000E+00  0.00000000E+00  0.00000000E+00
  0.00000000E+00  0.00000000E+00  0.00000000E+00
  0.00000000E+00  0.00000000E+00  0.00000000E+00
  0.00000000E+00  0.00000000E+00  0.00000000E+00
  0.00000000E+00  0.00000000E+00  0.00000000E+00
  0.00000000E+00  0.00000000E+00  0.00000000E+00
  0.00000000E+00  0.00000000E+00  0.00000000E+00
  0.00000000E+00  0.00000000E+00  0.00000000E+00
  0.00000000E+00  0.00000000E+00  0.00000000E+00
  0.00000000E+00  0.00000000E+00  0.00000000E+00
  0.00000000E+00  0.00000000E+00  0.00000000E+00
  0.00000000E+00  0.00000000E+00  0.00000000E+00
  0.00000000E+00  0.00000000E+00  0.00000000E+00
  0.00000000E+00  0.00000000E+00  0.00000000E+00
  0.00000000E+00  0.00000000E+00  0.00000000E+00
  0.00000000E+00  0.00000000E+00  0.00000000E+00
  0.00000000E+00  0.00000000E+00  0.00000000E+00
  0.00000000E+00  0.00000000E+00  0.00000000E+00
  0.00000000E+00  0.00000000E+00  0.00000000E+00
  0.00000000E+00  0.00000000E+00  0.00000000E+00
  0.00000000E+00  0.00000000E+00  0.00000000E+00
  0.00000000E+00  0.00000000E+00  0.00000000E+00
  0.00000000E+00  0.00000000E+00  0.00000000E+00
  0.00000000E+00  0.00000000E+00  0.00000000E+00
  0.00000000E+00  0.00000000E+00  0.00000000E+00
  0.00000000E+00  0.00000000E+00  0.00000000E+00
  0.00000000E+00  0.00000000E+00  0.00000000E+00
  0.00000000E+00  0.00000000E+00  0.00000000E+00
  0.00000000E+00  0.00000000E+00  0.00000000E+00
  0.00000000E+00  0.00000000E+00  0.00000000E+00
  0.00000000E+00  0.00000000E+00  0.00000000E+00
  0.00000000E+00  0.00000000E+00  0.00000000E+00
  0.00000000E+00  0.00000000E+00  0.00000000E+00
  0.00000000E+00  0.00000000E+00  0.00000000E+00
  0.00000000E+00  0.00000000E+00  0.00000000E+00
  0.00000000E+00  0.00000000E+00  0.00000000E+00
  0.00000000E+00  0.00000000E+00  0.00000000E+00
  0.00000000E+00  0.00000000E+00  0.00000000E+00
  0.00000000E+00  0.00000000E+00  0.00000000E+00
  0.00000000E+00  0.00000000E+00  0.00000000E+00
  0.00000000E+00  0.00000000E+00  0.00000000E+00
  0.00000000E+00  0.00000000E+00  0.00000000E+00
  0.00000000E+00  0.00000000E+00  0.00000000E+00
  0.00000000E+00  0.00000000E+00  0.00000000E+00
  0.00000000E+00  0.00000000E+00  0.00000000E+00
  0.00000000E+00  0.00000000E+00  0.00000000E+00
  0.00000000E+00  0.00000000E+00  0.00000000E+00
  0.00000000E+00  0.00000000E+00  0.00000000E+00
  0.00000000E+00  0.00000000E+00  0.00000000E+00
  0.00000000E+00  0.00000000E+00  0.00000000E+00
  0.00000000E+00  0.00000000E+00  0.00000000E+00
  0.00000000E+00  0.00000000E+00  0.00000000E+00
  0.00000000E+00  0.00000000E+00  0.00000000E+00
  0.00000000E+00  0.00000000E+00  0.00000000E+00
  0.00000000E+00  0.00000000E+00  0.00000000E+00
  0.00000000E+00  0.00000000E+00  0.00000000E+00
  0.00000000E+00  0.00000000E+00  0.00000000E+00
  0.00000000E+00  0.00000000E+00  0.00000000E+00
  0.00000000E+00  0.00000000E+00  0.00000000E+00
  0.00000000E+00  0.00000000E+00  0.00000000E+00
  0.00000000E+00  0.00000000E+00  0.00000000E+00
  0.00000000E+00  0.00000000E+00  0.00000000E+00
  0.00000000E+00  0.00000000E+00  0.00000000E+00
  0.00000000E+00  0.00000000E+00  0.00000000E+00
  0.00000000E+00  0.00000000E+00  0.00000000E+00
  0.00000000E+00  0.00000000E+00  0.00000000E+00
  0.00000000E+00  0.00000000E+00  0.00000000E+00
  0.00000000E+00  0.00000000E+00  0.00000000E+00
  0.00000000E+00  0.00000000E+00  0.00000000E+00
  0.00000000E+00  0.00000000E+00  0.00000000E+00
  0.00000000E+00  0.00000000E+00  0.00000000E+00
  0.00000000E+00  0.00000000E+00  0.00000000E+00
  0.00000000E+00  0.00000000E+00  0.00000000E+00
  0.00000000E+00  0.00000000E+00  0.00000000E+00
  0.00000000E+00  0.00000000E+00  0.00000000E+00
  0.00000000E+00  0.00000000E+00  0.00000000E+00
  0.00000000E+00  0.00000000E+00  0.00000000E+00
  0.00000000E+00  0.00000000E+00  0.00000000E+00
  0.00000000E+00  0.00000000E+00  0.00000000E+00
  0.00000000E+00  0.00000000E+00  0.00000000E+00
  0.00000000E+00  0.00000000E+00  0.00000000E+00
  0.00000000E+00  0.00000000E+00  0.00000000E+00
  0.00000000E+00  0.00000000E+00  0.00000000E+00
  0.00000000E+00  0.00000000E+00  0.00000000E+00
  0.00000000E+00  0.00000000E+00  0.00000000E+00
  0.00000000E+00  0.00000000E+00  0.00000000E+00
  0.00000000E+00  0.00000000E+00  0.00000000E+00
  0.00000000E+00  0.00000000E+00  0.00000000E+00
  0.00000000E+00  0.00000000E+00  0.00000000E+00
  0.00000000E+00  0.00000000E+00  0.00000000E+00
  0.00000000E+00  0.00000000E+00  0.00000000E+00
  0.00000000E+00  0.00000000E+00  0.00000000E+00
  0.00000000E+00  0.00000000E+00  0.00000000E+00
  0.00000000E+00  0.00000000E+00  0.00000000E+00
  0.00000000E+00  0.00000000E+00  0.00000000E+00
  0.00000000E+00  0.00000000E+00  0.00000000E+00
  0.00000000E+00  0.00000000E+00  0.00000000E+00
  0.00000000E+00  0.00000000E+00  0.00000000E+00
  0.00000000E+00  0.00000000E+00  0.00000000E+00
  0.00000000E+00  0.00000000E+00  0.00000000E+00
  0.00000000E+00  0.00000000E+00  0.00000000E+00
  0.00000000E+00  0.00000000E+00  0.00000000E+00
  0.00000000E+00  0.00000000E+00  0.00000000E+00
  0.00000000E+00  0.00000000E+00  0.00000000E+00
  0.00000000E+00  0.00000000E+00  0.00000000E+00
  0.00000000E+00  0.00000000E+00  0.00000000E+00
  0.00000000E+00  0.00000000E+00  0.00000000E+00
  0.00000000E+00  0.00000000E+00  0.00000000E+00
  0.00000000E+00  0.00000000E+00  0.00000000E+00
  0.00000000E+00  0.00000000E+00  0.00000000E+00
  0.00000000E+00  0.00000000E+00  0.00000000E+00
  0.00000000E+00  0.00000000E+00  0.00000000E+00
  0.00000000E+00  0.00000000E+00  0.00000000E+00
  0.00000000E+00  0.00000000E+00  0.00000000E+00
  0.00000000E+00  0.00000000E+00  0.00000000E+00
  0.00000000E+00  0.00000000E+00  0.00000000E+00
  0.00000000E+00  0.00000000E+00  0.00000000E+00
  0.00000000E+00  0.00000000E+00  0.00000000E+00
  0.00000000E+00  0.00000000E+00  0.00000000E+00
  0.00000000E+00  0.00000000E+00  0.00000000E+00
  0.00000000E+00  0.00000000E+00  0.00000000E+00
  0.00000000E+00  0.00000000E+00  0.00000000E+00
  0.00000000E+00  0.00000000E+00  0.00000000E+00
  0.00000000E+00  0.00000000E+00  0.00000000E+00
  0.00000000E+00  0.00000000E+00  0.00000000E+00
  0.00000000E+00  0.00000000E+00  0.00000000E+00
  0.00000000E+00  0.00000000E+00  0.00000000E+00
  0.00000000E+00  0.00000000E+00  0.00000000E+00
  0.00000000E+00  0.00000000E+00  0.00000000E+00
  0.00000000E+00  0.00000000E+00  0.00000000E+00
  0.00000000E+00  0.00000000E+00  0.00000000E+00
  0.00000000E+00  0.00000000E+00  0.00000000E+00
  0.00000000E+00  0.00000000E+00  0.00000000E+00
  0.00000000E+00  0.00000000E+00  0.00000000E+00
  0.00000000E+00  0.00000000E+00  0.00000000E+00
  0.00000000E+00  0.00000000E+00  0.00000000E+00
  0.00000000E+00  0.00000000E+00  0.00000000E+00
  0.00000000E+00  0.00000000E+00  0.00000000E+00
  0.00000000E+00  0.00000000E+00  0.00000000E+00
  0.00000000E+00  0.00000000E+00  0.00000000E+00
  0.00000000E+00  0.00000000E+00  0.00000000E+00
  0.00000000E+00  0.00000000E+00  0.00000000E+00
  0.00000000E+00  0.00000000E+00  0.00000000E+00
  0.00000000E+00  0.00000000E+00  0.00000000E+00
  0.00000000E+00  0.00000000E+00  0.00000000E+00
  0.00000000E+00  0.00000000E+00  0.00000000E+00
  0.00000000E+00  0.00000000E+00  0.00000000E+00
  0.00000000E+00  0.00000000E+00  0.00000000E+00
  0.00000000E+00  0.00000000E+00  0.00000000E+00
  0.00000000E+00  0.00000000E+00  0.00000000E+00
  0.00000000E+00  0.00000000E+00  0.00000000E+00
  0.00000000E+00  0.00000000E+00  0.00000000E+00
  0.00000000E+00  0.00000000E+00  0.00000000E+00
  0.00000000E+00  0.00000000E+00  0.00000000E+00
  0.00000000E+00  0.00000000E+00  0.00000000E+00
  0.00000000E+00  0.00000000E+00  0.00000000E+00
  0.00000000E+00  0.00000000E+00  0.00000000E+00
  0.00000000E+00  0.00000000E+00  0.00000000E+00
  0.00000000E+00  0.00000000E+00  0.00000000E+00
