In12 Ga42 Cu30 Ag24 Se108               
   1.0000000000000000     
    16.0148134027161149   -0.0011122381939896   -7.2730437701485613
    -3.3000587397926928   15.6537729471326941   -7.2849203550016091
     0.0070033943344290    0.0085841384399671   21.2628043023378410
   In   Ga   Cu   Ag   Se
    12    42    30    24   108
Direct
  0.1693394219861162  0.8337322865014016  0.9994900228335410
  0.4977065109025318  0.8311845860970450  0.9978036441993723
  0.4990219983134523  0.1685861700576297  0.9954170230754116
  0.4998626937482626  0.8356214875395054  0.3354233438768475
  0.1678640033322125  0.1659726431939035  0.3311337736787578
  0.1670653830537674  0.8286733026466138  0.6655114560463389
  0.5015297590346108  0.8315336504854329  0.6688348708621774
  0.5892328093640486  0.4175319530778836  0.1693373296693679
  0.9151453601614321  0.4157929836510803  0.1649591447518333
  0.5865641679139983  0.0847957996872353  0.1693592603086884
  0.2521760929876464  0.4202392884718762  0.5036099754935321
  0.2488692564120782  0.0873648307997286  0.8313013479716602
  0.1644534407653495  0.4930521544977040  0.9965600276035502
  0.4978905301471954  0.4960242141056312  0.9978356899039724
  0.8280807645471668  0.4934419563628722  0.9966040816260389
  0.8303612939910892  0.8375676718364531  0.9988625885137381
  0.1659284876827058  0.1688809976042407  0.9994515926178522
  0.8325248022741363  0.1678956160891474  0.9959427175918449
  0.1731723811952008  0.5001816688975467  0.3342934572948337
  0.4960752873928840  0.4976611489300922  0.3363152156688827
  0.8375713942604150  0.5005588185912657  0.3390895903662283
  0.1723475449729293  0.8307665117508733  0.3355938936159291
  0.8285083403095967  0.8369181333781128  0.3321339597172823
  0.5038456606599624  0.1682303659968127  0.3363157995259343
  0.8320409317646948  0.1690149205634910  0.3353897715203757
  0.1666937653659772  0.4950347481875710  0.6662793014612376
  0.5048448071524447  0.5011214148696510  0.6681905817395801
  0.8310639757397240  0.4953467517262382  0.6682703962326215
  0.8288496944117085  0.8346756918977150  0.6660956114819001
  0.1618587692461233  0.1723355840545793  0.6664509550229170
  0.5023100413168038  0.1688566763791570  0.6665931156689382
  0.8363247063176260  0.1731790371831252  0.6689234205869568
  0.2488979222248773  0.4164797064322769  0.1656611393925758
  0.2511226407480862  0.7473017742290011  0.1651452830593598
  0.5825611905007975  0.7509075272631875  0.1668078692466111
  0.9130184384453273  0.7492203706989429  0.1668184113769442
  0.2553333483003968  0.0843494306228010  0.1653472009067940
  0.9079571870399192  0.0850264046248839  0.1628014664542619
  0.5859860497148901  0.4159718469868707  0.5027772076432200
  0.9181651943137155  0.4120788236523296  0.5016698665099426
  0.2545264280607782  0.7437447780237605  0.4972201599017652
  0.5776382623560679  0.7459835286198313  0.5007985322207205
  0.9169712914460462  0.7534469035550018  0.5023663071014468
  0.2507570063424964  0.0860589498299476  0.5052975628859997
  0.5878272361226919  0.0890319001606343  0.5023519983713740
  0.9122636671965552  0.0881968751349831  0.4998777465916646
  0.2487807832456284  0.4131976677217466  0.8327284118765661
  0.5832823836885126  0.4095063710065858  0.8298769152412788
  0.9162752441219268  0.4104028610309030  0.8328420288152216
  0.2518903118065907  0.7479075003541382  0.8307578817615990
  0.5826292178010704  0.7492993271528334  0.8314986602942867
  0.9088719493053787  0.7529103486953233  0.8328162893495303
  0.5864146146479214  0.0864548331676360  0.8330408127235245
  0.9145023964553118  0.0873427660918580  0.8322928601403348
  0.0005365551871677  0.3298431535476425  0.9919309544200843
  0.3256292934918434  0.3337685584584023  0.9958289661613406
  0.6646647686979534  0.3325703567942853  0.9952199334603051
  0.3367388031503467  0.6632566652922378  0.0024353216419186
  0.9958414636430746  0.0039184073216063  0.9970939220599959
  0.3304615923998782  0.9968758723016222  0.9972717617571618
  0.3388502195598093  0.3371066946162102  0.3317476497175988
  0.6705944686455183  0.3345810815718409  0.3409226011694528
  0.3381040764681558  0.6640462379804006  0.3376075583814071
  0.6681654732671660  0.0035444597519572  0.3338652632524699
  0.9966693210827628  0.3322369140499291  0.6656093956547693
  0.3327891736485498  0.3322266568129351  0.6703247524760627
  0.6686732613609081  0.3301810756685555  0.6676129317523802
  0.3353922990157017  0.6646122980220213  0.6659461323976359
  0.6694470581963046  0.6675754721610403  0.6673193219563558
  0.9953980496656172  0.0040652704667465  0.6653426792449437
  0.7491685357998676  0.5838138023398969  0.1633224403765041
  0.4196813935205626  0.9175656391180098  0.1658990164278720
  0.7522040408846635  0.9169250316281747  0.1728142036612113
  0.7513256808638147  0.2524919586742342  0.1704600899545667
  0.0868966638787896  0.5845635332708667  0.5021877821270309
  0.4191718171733427  0.5796679195221301  0.5006091549649199
  0.4143674937164761  0.9172415998964141  0.4977999510516327
  0.0866716893448611  0.2513603092233296  0.5077961024130531
  0.7514436600587473  0.2520258779784754  0.5019817581947166
  0.4165448715607170  0.9126611802517033  0.8328783065903522
  0.7545649435565238  0.9183501214377827  0.8344285551743127
  0.0807328560184573  0.2496760835389509  0.8315546608484254
  0.4182142722741276  0.2542064147662373  0.8309405606944225
  0.7495555122146769  0.2534718352805996  0.8353117268642762
  0.9975820840005554  0.6606874090192605  0.0001271728344179
  0.6750319808061604  0.6682961196360395  0.0076360167511211
  0.6683810730090443  0.0034223043982351  0.9976945595662770
  0.0005874507292063  0.3341498246177608  0.3409380069183072
  0.9905067170530444  0.6654803817488144  0.3333502350497781
  0.6698855853998680  0.6626168350296808  0.3366291144672644
  0.0006432385113513  0.0040132708410070  0.3306780704901726
  0.3366417231715175  0.9996131729538504  0.3362634243058480
  0.9967633859119118  0.6549420628449312  0.6624241257434491
  0.3370219413654283  0.0052616075630354  0.6659139644345800
  0.6658604193248294  0.0087442952608328  0.6666629766327219
  0.0901158657622503  0.5884933783447579  0.1659257619200289
  0.4126394797112027  0.5798851507461436  0.1632152941332095
  0.0692857180286168  0.9168923624402865  0.1628583386995857
  0.0834069076618107  0.2478934266954269  0.1616845652663130
  0.4170636993726617  0.2536214157025896  0.1678566048786934
  0.7504149320770495  0.5816132312563767  0.5024295489717261
  0.0792890128223149  0.9123005060671971  0.4946325613594169
  0.7512397503746371  0.9192085373033976  0.5044640639176379
  0.4171519580257410  0.2548781530302477  0.5065631757939499
  0.0851502801508062  0.5835687434301633  0.8322309482231560
  0.4111639139694248  0.5740853336162743  0.8270551062414739
  0.7497360380669917  0.5815099156219787  0.8303491518915038
  0.0764845974894612  0.9234052684257250  0.8322384569029708
  0.1242065603369653  0.4496483165868383  0.0772788798550650
  0.4533521355012411  0.4485024692230581  0.0738507580638910
  0.7811096374471447  0.4588987703953222  0.0778401833397453
  0.1290917024604141  0.7889681532581605  0.0875187957934713
  0.4545528834778878  0.7881904040716918  0.0866507120369207
  0.7997097892147735  0.8041096035884578  0.0906953031701789
  0.1281207179542321  0.1159698558779922  0.0764976262761579
  0.4513911909790735  0.1174819050230198  0.0763772746813203
  0.7947411129883548  0.1380399399718399  0.0857259713542433
  0.1258073681742502  0.4675201562673408  0.4162970983927465
  0.4597343862312044  0.4564329103761864  0.4206090397003521
  0.7959936864331780  0.4513597813330676  0.4168602687690708
  0.1337377041266166  0.7856230236460320  0.4154623560032178
  0.4546867175890696  0.7905702238652026  0.4222761105588049
  0.7989599417603870  0.7932738763809297  0.4172881734542031
  0.1316036886468126  0.1335160233264503  0.4279456146617235
  0.4677341859920077  0.1295394165876047  0.4203987326351637
  0.7870796582211668  0.1278253469561434  0.4165809967030256
  0.1249702190224582  0.4484623357743587  0.7446983587631522
  0.4613499384680182  0.4466634285918047  0.7427519374690377
  0.7935078392466153  0.4473011282265489  0.7474976387476886
  0.1265335660089377  0.7879071373111373  0.7552328666670292
  0.4537503343873510  0.7881982786921640  0.7546353425776928
  0.7871262407513910  0.7931907409933743  0.7483853234511031
  0.1143328920024871  0.1277727210356403  0.7437168707025634
  0.4676978428146796  0.1352793311137148  0.7549960386357668
  0.7973390334060255  0.1381252597532736  0.7550863339600298
  0.2816776684820752  0.6218774837927654  0.0750862751760124
  0.6205032603854193  0.6210637869300726  0.0874082977929831
  0.9451961897074668  0.6209812718701286  0.0837280388434891
  0.3031119336970178  0.9643328242559761  0.0870321246322376
  0.6346981242376302  0.9546153169791012  0.0872778170882924
  0.9468453944585278  0.9656455569164706  0.0756393316739832
  0.2862953629015266  0.2951717980978046  0.0782992116064989
  0.6375006996213770  0.2905145712481954  0.0820527046804571
  0.9547830437768994  0.2884312255533601  0.0695720768553869
  0.2993295689953044  0.6212177901874867  0.4179493779410564
  0.6139453331582772  0.6227790222240301  0.4170796726713419
  0.9601824312452933  0.6247522755973094  0.4282585496474667
  0.2895459725836744  0.9595554485638615  0.4229354310681188
  0.6278332577777732  0.9694637743588714  0.4183235134516110
  0.9467606603610719  0.9623129189282196  0.4148588070225259
  0.2962144577834422  0.2972399918690201  0.4110142642609986
  0.6288746849720042  0.2925481349991799  0.4199284215849417
  0.9600509953797172  0.2855311116738122  0.4257493915831319
  0.2845949314195906  0.6233676195334468  0.7413774627036958
  0.6211824156530099  0.6289887585231142  0.7456239925936856
  0.9459900169948057  0.6246762705495286  0.7522249084688895
  0.2997403931851039  0.9561223627263047  0.7529587862962757
  0.6326848307624857  0.9634784436411650  0.7587449420573762
  0.9461478495831699  0.9637727008758361  0.7420245332824180
  0.2916362639219585  0.2914204949348473  0.7506742143014264
  0.6287893584679480  0.2891878483504158  0.7484458672585887
  0.9617506167084500  0.2928430858972533  0.7504107152258257
  0.2162532423992261  0.3774420814687645  0.2527461379724869
  0.5509289157283277  0.3806981857166178  0.2635631302746759
  0.8694387716532930  0.3753225170276338  0.2528220300419761
  0.2239762894818398  0.7142889484465584  0.2578573006585501
  0.5449681732183436  0.7084843655696673  0.2475067702096325
  0.8633366952745405  0.7115708683948938  0.2452631925769566
  0.2091107182315568  0.0381088494386006  0.2404911421944362
  0.5408017697598098  0.0395634431140550  0.2553322057189646
  0.8654100862207912  0.0455065868078819  0.2452291602539916
  0.2099081935663420  0.3703562750574534  0.5891531345953638
  0.5526627752890434  0.3806939002051521  0.5911427631185830
  0.8751543655786662  0.3741756423814451  0.5852873633230899
  0.2138738589621809  0.6989806675639301  0.5782831589418649
  0.5438059356325482  0.6975894703064327  0.5812104035843504
  0.8745605284440003  0.7177547847263526  0.5852579358453909
  0.2034007684437498  0.0507220930959420  0.5851090933672012
  0.5322021105700188  0.0439715006302919  0.5753254970891604
  0.8792668006970814  0.0521962764052901  0.5879729053433493
  0.2042225712367554  0.3700316674526789  0.9125689248248889
  0.5411726191573862  0.3730437362528960  0.9144757884466230
  0.8748633214768660  0.3717836597176785  0.9165803210245329
  0.2223601928698002  0.7063730152789702  0.9171349124994066
  0.5447424979717610  0.7041450830759501  0.9108807471790783
  0.8740123721956436  0.7173638983139057  0.9192650566847433
  0.2130834317660444  0.0477237716735814  0.9243951428892601
  0.5347843741850369  0.0357283626941083  0.9032410865787170
  0.8741758852869737  0.0426834500815048  0.9142368389310391
  0.0508563437519030  0.5411921281714953  0.2544411191822959
  0.3728051386765898  0.5389220612497923  0.2540378672366899
  0.7239875397250444  0.5438166234929867  0.2521913173280055
  0.0430431191849792  0.8635401977425374  0.2525035172775247
  0.3709242296402095  0.8702229992679023  0.2385680617385333
  0.7047197783495704  0.8782692322965531  0.2504332382636534
  0.0320903593835595  0.2028764645660672  0.2439272415969427
  0.3766786894006700  0.2087884785954088  0.2565336055285243
  0.7148615098618123  0.2197610557948479  0.2569224205246528
  0.0455380856547336  0.5298344456720088  0.5764353567564982
  0.3854204449699949  0.5490507458961744  0.5899172838542128
  0.7077686021931129  0.5395548061649365  0.5907730040618375
  0.0346104237451073  0.8790590539168122  0.5865163909096225
  0.3727252304341988  0.8700054610379695  0.5747533131111098
  0.7014222016544878  0.8664414503637872  0.5825930100070025
  0.0376337358670469  0.2117834347219514  0.5835568861936622
  0.3731458294703600  0.2089747849583290  0.5910822865625960
  0.7112739435193092  0.2125084317879598  0.5851699497179013
  0.0398888972153202  0.5295118424016465  0.9143345105333154
  0.3713377302516605  0.5376727320407895  0.9199693676211638
  0.7058239248551459  0.5305961967175037  0.9133209730574308
  0.0305911074763827  0.8761565324874283  0.9168668012135228
  0.3680676451217408  0.8779760257778335  0.9114625639878327
  0.7083622145333450  0.8697840149548455  0.9087552753495345
  0.0420555845381614  0.2074028264853425  0.9133087981589298
  0.3738624553731924  0.2228552418288956  0.9138121868735638
  0.7085953782397993  0.2112724548997065  0.9156049003591207

  0.00000000E+00  0.00000000E+00  0.00000000E+00
  0.00000000E+00  0.00000000E+00  0.00000000E+00
  0.00000000E+00  0.00000000E+00  0.00000000E+00
  0.00000000E+00  0.00000000E+00  0.00000000E+00
  0.00000000E+00  0.00000000E+00  0.00000000E+00
  0.00000000E+00  0.00000000E+00  0.00000000E+00
  0.00000000E+00  0.00000000E+00  0.00000000E+00
  0.00000000E+00  0.00000000E+00  0.00000000E+00
  0.00000000E+00  0.00000000E+00  0.00000000E+00
  0.00000000E+00  0.00000000E+00  0.00000000E+00
  0.00000000E+00  0.00000000E+00  0.00000000E+00
  0.00000000E+00  0.00000000E+00  0.00000000E+00
  0.00000000E+00  0.00000000E+00  0.00000000E+00
  0.00000000E+00  0.00000000E+00  0.00000000E+00
  0.00000000E+00  0.00000000E+00  0.00000000E+00
  0.00000000E+00  0.00000000E+00  0.00000000E+00
  0.00000000E+00  0.00000000E+00  0.00000000E+00
  0.00000000E+00  0.00000000E+00  0.00000000E+00
  0.00000000E+00  0.00000000E+00  0.00000000E+00
  0.00000000E+00  0.00000000E+00  0.00000000E+00
  0.00000000E+00  0.00000000E+00  0.00000000E+00
  0.00000000E+00  0.00000000E+00  0.00000000E+00
  0.00000000E+00  0.00000000E+00  0.00000000E+00
  0.00000000E+00  0.00000000E+00  0.00000000E+00
  0.00000000E+00  0.00000000E+00  0.00000000E+00
  0.00000000E+00  0.00000000E+00  0.00000000E+00
  0.00000000E+00  0.00000000E+00  0.00000000E+00
  0.00000000E+00  0.00000000E+00  0.00000000E+00
  0.00000000E+00  0.00000000E+00  0.00000000E+00
  0.00000000E+00  0.00000000E+00  0.00000000E+00
  0.00000000E+00  0.00000000E+00  0.00000000E+00
  0.00000000E+00  0.00000000E+00  0.00000000E+00
  0.00000000E+00  0.00000000E+00  0.00000000E+00
  0.00000000E+00  0.00000000E+00  0.00000000E+00
  0.00000000E+00  0.00000000E+00  0.00000000E+00
  0.00000000E+00  0.00000000E+00  0.00000000E+00
  0.00000000E+00  0.00000000E+00  0.00000000E+00
  0.00000000E+00  0.00000000E+00  0.00000000E+00
  0.00000000E+00  0.00000000E+00  0.00000000E+00
  0.00000000E+00  0.00000000E+00  0.00000000E+00
  0.00000000E+00  0.00000000E+00  0.00000000E+00
  0.00000000E+00  0.00000000E+00  0.00000000E+00
  0.00000000E+00  0.00000000E+00  0.00000000E+00
  0.00000000E+00  0.00000000E+00  0.00000000E+00
  0.00000000E+00  0.00000000E+00  0.00000000E+00
  0.00000000E+00  0.00000000E+00  0.00000000E+00
  0.00000000E+00  0.00000000E+00  0.00000000E+00
  0.00000000E+00  0.00000000E+00  0.00000000E+00
  0.00000000E+00  0.00000000E+00  0.00000000E+00
  0.00000000E+00  0.00000000E+00  0.00000000E+00
  0.00000000E+00  0.00000000E+00  0.00000000E+00
  0.00000000E+00  0.00000000E+00  0.00000000E+00
  0.00000000E+00  0.00000000E+00  0.00000000E+00
  0.00000000E+00  0.00000000E+00  0.00000000E+00
  0.00000000E+00  0.00000000E+00  0.00000000E+00
  0.00000000E+00  0.00000000E+00  0.00000000E+00
  0.00000000E+00  0.00000000E+00  0.00000000E+00
  0.00000000E+00  0.00000000E+00  0.00000000E+00
  0.00000000E+00  0.00000000E+00  0.00000000E+00
  0.00000000E+00  0.00000000E+00  0.00000000E+00
  0.00000000E+00  0.00000000E+00  0.00000000E+00
  0.00000000E+00  0.00000000E+00  0.00000000E+00
  0.00000000E+00  0.00000000E+00  0.00000000E+00
  0.00000000E+00  0.00000000E+00  0.00000000E+00
  0.00000000E+00  0.00000000E+00  0.00000000E+00
  0.00000000E+00  0.00000000E+00  0.00000000E+00
  0.00000000E+00  0.00000000E+00  0.00000000E+00
  0.00000000E+00  0.00000000E+00  0.00000000E+00
  0.00000000E+00  0.00000000E+00  0.00000000E+00
  0.00000000E+00  0.00000000E+00  0.00000000E+00
  0.00000000E+00  0.00000000E+00  0.00000000E+00
  0.00000000E+00  0.00000000E+00  0.00000000E+00
  0.00000000E+00  0.00000000E+00  0.00000000E+00
  0.00000000E+00  0.00000000E+00  0.00000000E+00
  0.00000000E+00  0.00000000E+00  0.00000000E+00
  0.00000000E+00  0.00000000E+00  0.00000000E+00
  0.00000000E+00  0.00000000E+00  0.00000000E+00
  0.00000000E+00  0.00000000E+00  0.00000000E+00
  0.00000000E+00  0.00000000E+00  0.00000000E+00
  0.00000000E+00  0.00000000E+00  0.00000000E+00
  0.00000000E+00  0.00000000E+00  0.00000000E+00
  0.00000000E+00  0.00000000E+00  0.00000000E+00
  0.00000000E+00  0.00000000E+00  0.00000000E+00
  0.00000000E+00  0.00000000E+00  0.00000000E+00
  0.00000000E+00  0.00000000E+00  0.00000000E+00
  0.00000000E+00  0.00000000E+00  0.00000000E+00
  0.00000000E+00  0.00000000E+00  0.00000000E+00
  0.00000000E+00  0.00000000E+00  0.00000000E+00
  0.00000000E+00  0.00000000E+00  0.00000000E+00
  0.00000000E+00  0.00000000E+00  0.00000000E+00
  0.00000000E+00  0.00000000E+00  0.00000000E+00
  0.00000000E+00  0.00000000E+00  0.00000000E+00
  0.00000000E+00  0.00000000E+00  0.00000000E+00
  0.00000000E+00  0.00000000E+00  0.00000000E+00
  0.00000000E+00  0.00000000E+00  0.00000000E+00
  0.00000000E+00  0.00000000E+00  0.00000000E+00
  0.00000000E+00  0.00000000E+00  0.00000000E+00
  0.00000000E+00  0.00000000E+00  0.00000000E+00
  0.00000000E+00  0.00000000E+00  0.00000000E+00
  0.00000000E+00  0.00000000E+00  0.00000000E+00
  0.00000000E+00  0.00000000E+00  0.00000000E+00
  0.00000000E+00  0.00000000E+00  0.00000000E+00
  0.00000000E+00  0.00000000E+00  0.00000000E+00
  0.00000000E+00  0.00000000E+00  0.00000000E+00
  0.00000000E+00  0.00000000E+00  0.00000000E+00
  0.00000000E+00  0.00000000E+00  0.00000000E+00
  0.00000000E+00  0.00000000E+00  0.00000000E+00
  0.00000000E+00  0.00000000E+00  0.00000000E+00
  0.00000000E+00  0.00000000E+00  0.00000000E+00
  0.00000000E+00  0.00000000E+00  0.00000000E+00
  0.00000000E+00  0.00000000E+00  0.00000000E+00
  0.00000000E+00  0.00000000E+00  0.00000000E+00
  0.00000000E+00  0.00000000E+00  0.00000000E+00
  0.00000000E+00  0.00000000E+00  0.00000000E+00
  0.00000000E+00  0.00000000E+00  0.00000000E+00
  0.00000000E+00  0.00000000E+00  0.00000000E+00
  0.00000000E+00  0.00000000E+00  0.00000000E+00
  0.00000000E+00  0.00000000E+00  0.00000000E+00
  0.00000000E+00  0.00000000E+00  0.00000000E+00
  0.00000000E+00  0.00000000E+00  0.00000000E+00
  0.00000000E+00  0.00000000E+00  0.00000000E+00
  0.00000000E+00  0.00000000E+00  0.00000000E+00
  0.00000000E+00  0.00000000E+00  0.00000000E+00
  0.00000000E+00  0.00000000E+00  0.00000000E+00
  0.00000000E+00  0.00000000E+00  0.00000000E+00
  0.00000000E+00  0.00000000E+00  0.00000000E+00
  0.00000000E+00  0.00000000E+00  0.00000000E+00
  0.00000000E+00  0.00000000E+00  0.00000000E+00
  0.00000000E+00  0.00000000E+00  0.00000000E+00
  0.00000000E+00  0.00000000E+00  0.00000000E+00
  0.00000000E+00  0.00000000E+00  0.00000000E+00
  0.00000000E+00  0.00000000E+00  0.00000000E+00
  0.00000000E+00  0.00000000E+00  0.00000000E+00
  0.00000000E+00  0.00000000E+00  0.00000000E+00
  0.00000000E+00  0.00000000E+00  0.00000000E+00
  0.00000000E+00  0.00000000E+00  0.00000000E+00
  0.00000000E+00  0.00000000E+00  0.00000000E+00
  0.00000000E+00  0.00000000E+00  0.00000000E+00
  0.00000000E+00  0.00000000E+00  0.00000000E+00
  0.00000000E+00  0.00000000E+00  0.00000000E+00
  0.00000000E+00  0.00000000E+00  0.00000000E+00
  0.00000000E+00  0.00000000E+00  0.00000000E+00
  0.00000000E+00  0.00000000E+00  0.00000000E+00
  0.00000000E+00  0.00000000E+00  0.00000000E+00
  0.00000000E+00  0.00000000E+00  0.00000000E+00
  0.00000000E+00  0.00000000E+00  0.00000000E+00
  0.00000000E+00  0.00000000E+00  0.00000000E+00
  0.00000000E+00  0.00000000E+00  0.00000000E+00
  0.00000000E+00  0.00000000E+00  0.00000000E+00
  0.00000000E+00  0.00000000E+00  0.00000000E+00
  0.00000000E+00  0.00000000E+00  0.00000000E+00
  0.00000000E+00  0.00000000E+00  0.00000000E+00
  0.00000000E+00  0.00000000E+00  0.00000000E+00
  0.00000000E+00  0.00000000E+00  0.00000000E+00
  0.00000000E+00  0.00000000E+00  0.00000000E+00
  0.00000000E+00  0.00000000E+00  0.00000000E+00
  0.00000000E+00  0.00000000E+00  0.00000000E+00
  0.00000000E+00  0.00000000E+00  0.00000000E+00
  0.00000000E+00  0.00000000E+00  0.00000000E+00
  0.00000000E+00  0.00000000E+00  0.00000000E+00
  0.00000000E+00  0.00000000E+00  0.00000000E+00
  0.00000000E+00  0.00000000E+00  0.00000000E+00
  0.00000000E+00  0.00000000E+00  0.00000000E+00
  0.00000000E+00  0.00000000E+00  0.00000000E+00
  0.00000000E+00  0.00000000E+00  0.00000000E+00
  0.00000000E+00  0.00000000E+00  0.00000000E+00
  0.00000000E+00  0.00000000E+00  0.00000000E+00
  0.00000000E+00  0.00000000E+00  0.00000000E+00
  0.00000000E+00  0.00000000E+00  0.00000000E+00
  0.00000000E+00  0.00000000E+00  0.00000000E+00
  0.00000000E+00  0.00000000E+00  0.00000000E+00
  0.00000000E+00  0.00000000E+00  0.00000000E+00
  0.00000000E+00  0.00000000E+00  0.00000000E+00
  0.00000000E+00  0.00000000E+00  0.00000000E+00
  0.00000000E+00  0.00000000E+00  0.00000000E+00
  0.00000000E+00  0.00000000E+00  0.00000000E+00
  0.00000000E+00  0.00000000E+00  0.00000000E+00
  0.00000000E+00  0.00000000E+00  0.00000000E+00
  0.00000000E+00  0.00000000E+00  0.00000000E+00
  0.00000000E+00  0.00000000E+00  0.00000000E+00
  0.00000000E+00  0.00000000E+00  0.00000000E+00
  0.00000000E+00  0.00000000E+00  0.00000000E+00
  0.00000000E+00  0.00000000E+00  0.00000000E+00
  0.00000000E+00  0.00000000E+00  0.00000000E+00
  0.00000000E+00  0.00000000E+00  0.00000000E+00
  0.00000000E+00  0.00000000E+00  0.00000000E+00
  0.00000000E+00  0.00000000E+00  0.00000000E+00
  0.00000000E+00  0.00000000E+00  0.00000000E+00
  0.00000000E+00  0.00000000E+00  0.00000000E+00
  0.00000000E+00  0.00000000E+00  0.00000000E+00
  0.00000000E+00  0.00000000E+00  0.00000000E+00
  0.00000000E+00  0.00000000E+00  0.00000000E+00
  0.00000000E+00  0.00000000E+00  0.00000000E+00
  0.00000000E+00  0.00000000E+00  0.00000000E+00
  0.00000000E+00  0.00000000E+00  0.00000000E+00
  0.00000000E+00  0.00000000E+00  0.00000000E+00
  0.00000000E+00  0.00000000E+00  0.00000000E+00
  0.00000000E+00  0.00000000E+00  0.00000000E+00
  0.00000000E+00  0.00000000E+00  0.00000000E+00
  0.00000000E+00  0.00000000E+00  0.00000000E+00
  0.00000000E+00  0.00000000E+00  0.00000000E+00
  0.00000000E+00  0.00000000E+00  0.00000000E+00
  0.00000000E+00  0.00000000E+00  0.00000000E+00
  0.00000000E+00  0.00000000E+00  0.00000000E+00
  0.00000000E+00  0.00000000E+00  0.00000000E+00
  0.00000000E+00  0.00000000E+00  0.00000000E+00
  0.00000000E+00  0.00000000E+00  0.00000000E+00
  0.00000000E+00  0.00000000E+00  0.00000000E+00
  0.00000000E+00  0.00000000E+00  0.00000000E+00
  0.00000000E+00  0.00000000E+00  0.00000000E+00
  0.00000000E+00  0.00000000E+00  0.00000000E+00
  0.00000000E+00  0.00000000E+00  0.00000000E+00
  0.00000000E+00  0.00000000E+00  0.00000000E+00
  0.00000000E+00  0.00000000E+00  0.00000000E+00
  0.00000000E+00  0.00000000E+00  0.00000000E+00
  0.00000000E+00  0.00000000E+00  0.00000000E+00
