In36 Ga18 Cu54 Se108                    
   1.0000000000000000     
    15.9288815712837177   -0.0017147766213735   -7.0880368081311440
    -3.1477844715497421   15.6172795602183694   -7.0784329184243031
    -0.0163190282604870   -0.0302648769941640   21.3952791615243072
   In   Ga   Cu   Se
    36    18    54   108
Direct
  0.1661668949709849  0.8320472407223676  0.0020844223416390
  0.1680229908304938  0.1690323560398070  0.0036691278152858
  0.5013623386750226  0.1673130194066488  0.9989891185605444
  0.8304447587815460  0.1666848749125123  0.9990862183633027
  0.1676532348521746  0.5000555451232742  0.3323886013590140
  0.4980061537002669  0.5021219588000960  0.3323668230593526
  0.1642329267456688  0.8296290102228525  0.3290089665663203
  0.4982686840562138  0.8289897459671138  0.3320652253778960
  0.1657320208506761  0.1683914728187830  0.3327871957703081
  0.4972518562019062  0.1647537665371601  0.3307712842853689
  0.8333374890950509  0.1662151723390508  0.3327893258122359
  0.4982799407833056  0.4995788254446865  0.6653594119096695
  0.8347802623306606  0.5034313368407410  0.6684750482133168
  0.1650520000439997  0.8322157645796082  0.6657730710405971
  0.5017107138619963  0.8343252006376005  0.6675489068748064
  0.8335532508860624  0.8296909343371865  0.6651280769448036
  0.1669493705717215  0.1694470873158096  0.6689120641571051
  0.4998790027824853  0.1671634936070561  0.6688834957088972
  0.8340202236746208  0.1676157036848949  0.6668723045181437
  0.5853464602969041  0.4197611845561795  0.1666606851764314
  0.9162384540858426  0.4200653597010984  0.1663821291750907
  0.5830355098929729  0.7473674004449009  0.1646340326363713
  0.5818646945117081  0.0789830934070039  0.1646301065677918
  0.9156872164737919  0.0807663614627785  0.1647882434057024
  0.5838525915603867  0.4169878421705135  0.4989321716382236
  0.9186030404319894  0.4192932271109981  0.5000292446686174
  0.2498763083453568  0.7499724823405742  0.4997383236908775
  0.2492310477681769  0.0813296027795971  0.4996521598239809
  0.5822741096540085  0.0825907130019274  0.4990282571785798
  0.9156920294079143  0.0803087829440372  0.4983562171008131
  0.5858673124070748  0.4203723744575854  0.8370656976918553
  0.9183387989328580  0.4188701391291758  0.8374364360333146
  0.2529615959789311  0.7494656689001644  0.8345992324335398
  0.5850705157388916  0.7497887309804625  0.8370964732300550
  0.2491832227178108  0.0830611742656373  0.8346714423123345
  0.9174861961949787  0.0848444278739322  0.8342193121099086
  0.1686615633110193  0.5033302900360965  0.0011278792789611
  0.4980688712349775  0.4995378713284282  0.9987013143439256
  0.8333647126321750  0.5037554659686236  0.0019881538199868
  0.5003627380369906  0.8314576780041989  0.0006474389940010
  0.8362705283792593  0.8305432375507777  0.0006072203046372
  0.8343150449248853  0.5036175401307332  0.3345601522374295
  0.8352385233524515  0.8306070504639607  0.3319788420709457
  0.1693279260877887  0.4999553336590310  0.6676758238479863
  0.2486382311487034  0.4187223643327300  0.1636604721139605
  0.2485142624846262  0.7464823287579847  0.1644727198153078
  0.9143750265770407  0.7483193761697180  0.1641124502959883
  0.2481045287862074  0.0821255644079741  0.1661741818565403
  0.2488946610599925  0.4195897256687431  0.5010856667271852
  0.5831884804627663  0.7493342487676742  0.5001420483588106
  0.9166389251202389  0.7475805222546938  0.4964819046593192
  0.2515571816087672  0.4206164499053315  0.8355844686936464
  0.9170747225226350  0.7506415555542247  0.8359005163324582
  0.5836596173140620  0.0831818807270039  0.8342646175530675
  0.0016596336946222  0.3394407812818159  0.0029106329537427
  0.3301063946886629  0.3405802937456670  0.9998658622731540
  0.6653751899120266  0.3353971584134001  0.9978945917703328
  0.9993329254705685  0.6659322417108271  0.0019788780731673
  0.3355673514053095  0.6645791853107568  0.0013828167144325
  0.6680219199630102  0.6669335690641844  0.0016731680579838
  0.0008179432634421  0.9961373576485855  0.0010313661474513
  0.3353479053880335  0.9984548836324691  0.0022341127515659
  0.6669553622698103  0.9968328611866681  0.9998309574456812
  0.0003643554158117  0.3368088280650170  0.3337156267336141
  0.3277545719750279  0.3322526432571635  0.3299330169742873
  0.6682528329143906  0.3362860227840585  0.3320339058947184
  0.9931553647162019  0.6666923212257956  0.3313242594117085
  0.3338539147899979  0.6651117344092512  0.3296478398537204
  0.6715356184701946  0.6690997490699147  0.3355746847712240
  0.9970241071634760  0.9944061518379499  0.3302928999898924
  0.3298375059438499  0.9953661738435002  0.3267946421912029
  0.6683659206132475  0.9947622003023184  0.3311639640875370
  0.0058195068885851  0.3380113052949980  0.6693213679165595
  0.3296209187297023  0.3381213702907857  0.6683123995282330
  0.6676815060189085  0.3353375158029976  0.6678909660524184
  0.0007022923087803  0.6675358911208136  0.6685555198428332
  0.3321317612684425  0.6620578944285356  0.6658012089783227
  0.6693076065139323  0.6678737929610818  0.6670120628551928
  0.9992702488246223  0.9970065469056806  0.6645665772035301
  0.3360491373265901  0.0026829844630711  0.6709027076752108
  0.6661918476369380  0.9975416769400169  0.6680184698122318
  0.0830324059355974  0.5825701179602731  0.1621472398125121
  0.4122239404729484  0.5825076924740600  0.1622078116880914
  0.7505229548667316  0.5841168046414609  0.1658427881522542
  0.0830989737190464  0.9142842171852550  0.1660216227174587
  0.4126078605756192  0.9135797444665030  0.1640223001485097
  0.7493658206185074  0.9087558510353944  0.1628973408038021
  0.0851474303072806  0.2487770471247970  0.1648899297318280
  0.4120975069506017  0.2515428346798529  0.1664109616111276
  0.7535896460786162  0.2554995904636854  0.1703911446247517
  0.0802788089605428  0.5813258665733088  0.4996786264082260
  0.4187571315200671  0.5846648947707322  0.5003515450328635
  0.7510853105732025  0.5864976542844502  0.4964959583698132
  0.0809978324088334  0.9151357852212385  0.4992573581484763
  0.4163974648537234  0.9136436233750160  0.4979085490998756
  0.7488431200189112  0.9093867399142610  0.4975100068320160
  0.0877009235689172  0.2526352310846249  0.5010401432933449
  0.4121392704949614  0.2506088495031236  0.4990411944345396
  0.7508027554421375  0.2518998978483467  0.4997799435744952
  0.0848648334209514  0.5816990704369047  0.8335455244389109
  0.4151647332121016  0.5840747718102648  0.8375180738257839
  0.7545988900859228  0.5886799581738060  0.8376343072355610
  0.0817195110325457  0.9167108311091212  0.8358252545461369
  0.4203801312759623  0.9155324418338893  0.8358013755431628
  0.7522900259426493  0.9148153366774281  0.8361686545048954
  0.0872183990643478  0.2555564513444253  0.8369122014954016
  0.4156969167894289  0.2528719013014182  0.8351401817924540
  0.7508391778127361  0.2528961792049458  0.8368062950060136
  0.1233914369058411  0.4600928481996931  0.0814317581527035
  0.4506902390615792  0.4622721707855746  0.0791810113598217
  0.7819404190426695  0.4611735624031894  0.0779433277557544
  0.1202484055961079  0.7875575151094196  0.0886105945239066
  0.4493224239440465  0.7926022307282139  0.0790177732626915
  0.7897993948670603  0.7885572345255412  0.0811114591405584
  0.1190718815893277  0.1198325692091657  0.0868065390726258
  0.4474306689724301  0.1266920880836793  0.0835222018189512
  0.7793361824820551  0.1261789867965390  0.0847185069794136
  0.1207889966488693  0.4577069328635091  0.4203031127611325
  0.4455828283461969  0.4566819474679562  0.4145806491135247
  0.7840316052650849  0.4620314478229588  0.4118071118768754
  0.1125287293609958  0.7900736498455956  0.4148458891718150
  0.4535563922365711  0.7868601135246038  0.4204260608328596
  0.7920006274404443  0.7906520541268804  0.4153910695202256
  0.1118160407150768  0.1219030878702583  0.4144472102805636
  0.4435152969573437  0.1233775609570102  0.4147734089782844
  0.7795297928860734  0.1239669048939547  0.4159150570007100
  0.1260225116556768  0.4604260480317990  0.7510675330602723
  0.4487549931791150  0.4611142943568964  0.7525131313944868
  0.7824524839646969  0.4610948293814445  0.7523926862575365
  0.1161252649980398  0.7931375332241544  0.7528563357918756
  0.4477736773856194  0.7881711220483467  0.7494513494931851
  0.7890828298007833  0.7894522568380182  0.7552368875065483
  0.1124747065498894  0.1252715489220648  0.7508487077442538
  0.4545940895090155  0.1256407652612808  0.7578002274029387
  0.7801366704031381  0.1262167627515467  0.7507292078789192
  0.2938431584617831  0.6259246940346941  0.0826385692292817
  0.6280078890229674  0.6163703352867458  0.0775391130455247
  0.9598912646486113  0.6249435005180146  0.0836486038423914
  0.2982113590486648  0.9641538975371446  0.0877192072672983
  0.6297650924349796  0.9481196235929801  0.0785629561810453
  0.9632141938866638  0.9496272200562927  0.0794452847091591
  0.2999001493176650  0.3013065221863869  0.0863935415004988
  0.6381111397566883  0.2936563796621172  0.0834768410262967
  0.9683894883595769  0.2921410928858350  0.0832360909767047
  0.3037458393682400  0.6259491699634196  0.4154786902589578
  0.6324202496367164  0.6327966923948978  0.4194489951483433
  0.9618314902541059  0.6241031948496385  0.4162638050730507
  0.3012114185435593  0.9558434721530915  0.4136120066108759
  0.6348894269120962  0.9549347984842811  0.4152932466237615
  0.9623037425654033  0.9499799872932044  0.4112717611018297
  0.2976884791750507  0.3005647743797795  0.4208648125163208
  0.6351776472477724  0.2910484392189616  0.4136298240018448
  0.9699469339378552  0.2919527873810495  0.4162234804815199
  0.2977509758290040  0.6177395595287294  0.7471744472195354
  0.6360864403230693  0.6249325722371353  0.7500991911431498
  0.9686685489992257  0.6331198262901978  0.7572685030788691
  0.3031202039742880  0.9571428465941594  0.7521363348719348
  0.6361508420801343  0.9641913243402627  0.7577007476506026
  0.9686661308719593  0.9576185729665170  0.7498807503616334
  0.2997898270540986  0.3007010565845718  0.7559494126061850
  0.6361070156372008  0.2935028418086532  0.7514680271890910
  0.9704936885576245  0.2944601422795969  0.7511196822517689
  0.2085291039219754  0.3674033711885656  0.2416649662293295
  0.5404142443351532  0.3654807861893090  0.2487575482221018
  0.8750459918288414  0.3757545005649590  0.2560943406237612
  0.2105752429857759  0.6976707234312940  0.2438029121693646
  0.5417824057750522  0.6937253578923759  0.2484914235449835
  0.8726116929051031  0.7052519861887347  0.2466305486597449
  0.2072360075525808  0.0328019948557809  0.2445477044812776
  0.5406250389958984  0.0264433974408576  0.2492938705031591
  0.8722884755201363  0.0280411020017013  0.2477927873591526
  0.2086154644196299  0.3746417542512148  0.5832736420397708
  0.5411460625544748  0.3632035522520241  0.5821361560127727
  0.8772656131187020  0.3667285359606751  0.5846283147570688
  0.2073229103832830  0.6958134601968240  0.5825440524585090
  0.5456669499965869  0.7002705285038786  0.5805018047953325
  0.8796856423636399  0.6989026963508920  0.5775001428498143
  0.2076612596098357  0.0303978202934871  0.5852745640233152
  0.5410796420153616  0.0301891570350534  0.5837289964485635
  0.8725926837384748  0.0283705229264584  0.5823675182579038
  0.2079962319467583  0.3777421289094605  0.9168608002514418
  0.5383884658177749  0.3720286955423262  0.9209420993094639
  0.8728993619172556  0.3737078718348101  0.9243023940602839
  0.2105640346856816  0.6974727107561804  0.9183578754459631
  0.5393329831727911  0.7021325274142214  0.9226160668344576
  0.8786311367930182  0.7063114248901599  0.9188307810328666
  0.2083841335908474  0.0304291620855821  0.9193450366316611
  0.5455909059385959  0.0321800775665366  0.9131433683256702
  0.8772276927993303  0.0315699668791254  0.9187123792608745
  0.0426006060867152  0.5557883026800567  0.2498631704530538
  0.3677468486627120  0.5453890229153018  0.2423680660768284
  0.7169306966602562  0.5525482099973900  0.2547328625388516
  0.0333721530898927  0.8763635907390324  0.2430972204376047
  0.3674976349732901  0.8740380574381135  0.2429864444038685
  0.7157454468550242  0.8791156131110185  0.2526382760560466
  0.0395100312640366  0.2201483983714780  0.2480344009117061
  0.3652203411688717  0.2117703292629329  0.2447473662928346
  0.7068833402698900  0.2174129470818755  0.2482922315832923
  0.0499041600269052  0.5516463640016056  0.5912336515032308
  0.3689022000523394  0.5464370941627834  0.5776391673385746
  0.7101104288434357  0.5538031171712916  0.5809895647219463
  0.0341882689248507  0.8769490642464177  0.5774551472220466
  0.3751534201857964  0.8872673830785587  0.5843480568850481
  0.7017598170992301  0.8776356301501664  0.5796890080308543
  0.0412553587870050  0.2188547292155576  0.5817851998594961
  0.3725895461098361  0.2208675327200211  0.5856906842802161
  0.7077982768947564  0.2200662027615934  0.5827771919495746
  0.0488679972242210  0.5520155241135853  0.9225995165937633
  0.3752234085215918  0.5446822942547982  0.9187451679298704
  0.7165830668999646  0.5532135746578106  0.9220238863075565
  0.0357607652589991  0.8776566611436749  0.9138366722382685
  0.3837703853192522  0.8835381218178924  0.9228798711630191
  0.7174356697740265  0.8815459916197028  0.9233893215605136
  0.0428278165011662  0.2224849702081428  0.9188614584109231
  0.3727729961201192  0.2217324809218226  0.9186693784501401
  0.6999195313583897  0.2133625101695671  0.9122596244238252

  0.00000000E+00  0.00000000E+00  0.00000000E+00
  0.00000000E+00  0.00000000E+00  0.00000000E+00
  0.00000000E+00  0.00000000E+00  0.00000000E+00
  0.00000000E+00  0.00000000E+00  0.00000000E+00
  0.00000000E+00  0.00000000E+00  0.00000000E+00
  0.00000000E+00  0.00000000E+00  0.00000000E+00
  0.00000000E+00  0.00000000E+00  0.00000000E+00
  0.00000000E+00  0.00000000E+00  0.00000000E+00
  0.00000000E+00  0.00000000E+00  0.00000000E+00
  0.00000000E+00  0.00000000E+00  0.00000000E+00
  0.00000000E+00  0.00000000E+00  0.00000000E+00
  0.00000000E+00  0.00000000E+00  0.00000000E+00
  0.00000000E+00  0.00000000E+00  0.00000000E+00
  0.00000000E+00  0.00000000E+00  0.00000000E+00
  0.00000000E+00  0.00000000E+00  0.00000000E+00
  0.00000000E+00  0.00000000E+00  0.00000000E+00
  0.00000000E+00  0.00000000E+00  0.00000000E+00
  0.00000000E+00  0.00000000E+00  0.00000000E+00
  0.00000000E+00  0.00000000E+00  0.00000000E+00
  0.00000000E+00  0.00000000E+00  0.00000000E+00
  0.00000000E+00  0.00000000E+00  0.00000000E+00
  0.00000000E+00  0.00000000E+00  0.00000000E+00
  0.00000000E+00  0.00000000E+00  0.00000000E+00
  0.00000000E+00  0.00000000E+00  0.00000000E+00
  0.00000000E+00  0.00000000E+00  0.00000000E+00
  0.00000000E+00  0.00000000E+00  0.00000000E+00
  0.00000000E+00  0.00000000E+00  0.00000000E+00
  0.00000000E+00  0.00000000E+00  0.00000000E+00
  0.00000000E+00  0.00000000E+00  0.00000000E+00
  0.00000000E+00  0.00000000E+00  0.00000000E+00
  0.00000000E+00  0.00000000E+00  0.00000000E+00
  0.00000000E+00  0.00000000E+00  0.00000000E+00
  0.00000000E+00  0.00000000E+00  0.00000000E+00
  0.00000000E+00  0.00000000E+00  0.00000000E+00
  0.00000000E+00  0.00000000E+00  0.00000000E+00
  0.00000000E+00  0.00000000E+00  0.00000000E+00
  0.00000000E+00  0.00000000E+00  0.00000000E+00
  0.00000000E+00  0.00000000E+00  0.00000000E+00
  0.00000000E+00  0.00000000E+00  0.00000000E+00
  0.00000000E+00  0.00000000E+00  0.00000000E+00
  0.00000000E+00  0.00000000E+00  0.00000000E+00
  0.00000000E+00  0.00000000E+00  0.00000000E+00
  0.00000000E+00  0.00000000E+00  0.00000000E+00
  0.00000000E+00  0.00000000E+00  0.00000000E+00
  0.00000000E+00  0.00000000E+00  0.00000000E+00
  0.00000000E+00  0.00000000E+00  0.00000000E+00
  0.00000000E+00  0.00000000E+00  0.00000000E+00
  0.00000000E+00  0.00000000E+00  0.00000000E+00
  0.00000000E+00  0.00000000E+00  0.00000000E+00
  0.00000000E+00  0.00000000E+00  0.00000000E+00
  0.00000000E+00  0.00000000E+00  0.00000000E+00
  0.00000000E+00  0.00000000E+00  0.00000000E+00
  0.00000000E+00  0.00000000E+00  0.00000000E+00
  0.00000000E+00  0.00000000E+00  0.00000000E+00
  0.00000000E+00  0.00000000E+00  0.00000000E+00
  0.00000000E+00  0.00000000E+00  0.00000000E+00
  0.00000000E+00  0.00000000E+00  0.00000000E+00
  0.00000000E+00  0.00000000E+00  0.00000000E+00
  0.00000000E+00  0.00000000E+00  0.00000000E+00
  0.00000000E+00  0.00000000E+00  0.00000000E+00
  0.00000000E+00  0.00000000E+00  0.00000000E+00
  0.00000000E+00  0.00000000E+00  0.00000000E+00
  0.00000000E+00  0.00000000E+00  0.00000000E+00
  0.00000000E+00  0.00000000E+00  0.00000000E+00
  0.00000000E+00  0.00000000E+00  0.00000000E+00
  0.00000000E+00  0.00000000E+00  0.00000000E+00
  0.00000000E+00  0.00000000E+00  0.00000000E+00
  0.00000000E+00  0.00000000E+00  0.00000000E+00
  0.00000000E+00  0.00000000E+00  0.00000000E+00
  0.00000000E+00  0.00000000E+00  0.00000000E+00
  0.00000000E+00  0.00000000E+00  0.00000000E+00
  0.00000000E+00  0.00000000E+00  0.00000000E+00
  0.00000000E+00  0.00000000E+00  0.00000000E+00
  0.00000000E+00  0.00000000E+00  0.00000000E+00
  0.00000000E+00  0.00000000E+00  0.00000000E+00
  0.00000000E+00  0.00000000E+00  0.00000000E+00
  0.00000000E+00  0.00000000E+00  0.00000000E+00
  0.00000000E+00  0.00000000E+00  0.00000000E+00
  0.00000000E+00  0.00000000E+00  0.00000000E+00
  0.00000000E+00  0.00000000E+00  0.00000000E+00
  0.00000000E+00  0.00000000E+00  0.00000000E+00
  0.00000000E+00  0.00000000E+00  0.00000000E+00
  0.00000000E+00  0.00000000E+00  0.00000000E+00
  0.00000000E+00  0.00000000E+00  0.00000000E+00
  0.00000000E+00  0.00000000E+00  0.00000000E+00
  0.00000000E+00  0.00000000E+00  0.00000000E+00
  0.00000000E+00  0.00000000E+00  0.00000000E+00
  0.00000000E+00  0.00000000E+00  0.00000000E+00
  0.00000000E+00  0.00000000E+00  0.00000000E+00
  0.00000000E+00  0.00000000E+00  0.00000000E+00
  0.00000000E+00  0.00000000E+00  0.00000000E+00
  0.00000000E+00  0.00000000E+00  0.00000000E+00
  0.00000000E+00  0.00000000E+00  0.00000000E+00
  0.00000000E+00  0.00000000E+00  0.00000000E+00
  0.00000000E+00  0.00000000E+00  0.00000000E+00
  0.00000000E+00  0.00000000E+00  0.00000000E+00
  0.00000000E+00  0.00000000E+00  0.00000000E+00
  0.00000000E+00  0.00000000E+00  0.00000000E+00
  0.00000000E+00  0.00000000E+00  0.00000000E+00
  0.00000000E+00  0.00000000E+00  0.00000000E+00
  0.00000000E+00  0.00000000E+00  0.00000000E+00
  0.00000000E+00  0.00000000E+00  0.00000000E+00
  0.00000000E+00  0.00000000E+00  0.00000000E+00
  0.00000000E+00  0.00000000E+00  0.00000000E+00
  0.00000000E+00  0.00000000E+00  0.00000000E+00
  0.00000000E+00  0.00000000E+00  0.00000000E+00
  0.00000000E+00  0.00000000E+00  0.00000000E+00
  0.00000000E+00  0.00000000E+00  0.00000000E+00
  0.00000000E+00  0.00000000E+00  0.00000000E+00
  0.00000000E+00  0.00000000E+00  0.00000000E+00
  0.00000000E+00  0.00000000E+00  0.00000000E+00
  0.00000000E+00  0.00000000E+00  0.00000000E+00
  0.00000000E+00  0.00000000E+00  0.00000000E+00
  0.00000000E+00  0.00000000E+00  0.00000000E+00
  0.00000000E+00  0.00000000E+00  0.00000000E+00
  0.00000000E+00  0.00000000E+00  0.00000000E+00
  0.00000000E+00  0.00000000E+00  0.00000000E+00
  0.00000000E+00  0.00000000E+00  0.00000000E+00
  0.00000000E+00  0.00000000E+00  0.00000000E+00
  0.00000000E+00  0.00000000E+00  0.00000000E+00
  0.00000000E+00  0.00000000E+00  0.00000000E+00
  0.00000000E+00  0.00000000E+00  0.00000000E+00
  0.00000000E+00  0.00000000E+00  0.00000000E+00
  0.00000000E+00  0.00000000E+00  0.00000000E+00
  0.00000000E+00  0.00000000E+00  0.00000000E+00
  0.00000000E+00  0.00000000E+00  0.00000000E+00
  0.00000000E+00  0.00000000E+00  0.00000000E+00
  0.00000000E+00  0.00000000E+00  0.00000000E+00
  0.00000000E+00  0.00000000E+00  0.00000000E+00
  0.00000000E+00  0.00000000E+00  0.00000000E+00
  0.00000000E+00  0.00000000E+00  0.00000000E+00
  0.00000000E+00  0.00000000E+00  0.00000000E+00
  0.00000000E+00  0.00000000E+00  0.00000000E+00
  0.00000000E+00  0.00000000E+00  0.00000000E+00
  0.00000000E+00  0.00000000E+00  0.00000000E+00
  0.00000000E+00  0.00000000E+00  0.00000000E+00
  0.00000000E+00  0.00000000E+00  0.00000000E+00
  0.00000000E+00  0.00000000E+00  0.00000000E+00
  0.00000000E+00  0.00000000E+00  0.00000000E+00
  0.00000000E+00  0.00000000E+00  0.00000000E+00
  0.00000000E+00  0.00000000E+00  0.00000000E+00
  0.00000000E+00  0.00000000E+00  0.00000000E+00
  0.00000000E+00  0.00000000E+00  0.00000000E+00
  0.00000000E+00  0.00000000E+00  0.00000000E+00
  0.00000000E+00  0.00000000E+00  0.00000000E+00
  0.00000000E+00  0.00000000E+00  0.00000000E+00
  0.00000000E+00  0.00000000E+00  0.00000000E+00
  0.00000000E+00  0.00000000E+00  0.00000000E+00
  0.00000000E+00  0.00000000E+00  0.00000000E+00
  0.00000000E+00  0.00000000E+00  0.00000000E+00
  0.00000000E+00  0.00000000E+00  0.00000000E+00
  0.00000000E+00  0.00000000E+00  0.00000000E+00
  0.00000000E+00  0.00000000E+00  0.00000000E+00
  0.00000000E+00  0.00000000E+00  0.00000000E+00
  0.00000000E+00  0.00000000E+00  0.00000000E+00
  0.00000000E+00  0.00000000E+00  0.00000000E+00
  0.00000000E+00  0.00000000E+00  0.00000000E+00
  0.00000000E+00  0.00000000E+00  0.00000000E+00
  0.00000000E+00  0.00000000E+00  0.00000000E+00
  0.00000000E+00  0.00000000E+00  0.00000000E+00
  0.00000000E+00  0.00000000E+00  0.00000000E+00
  0.00000000E+00  0.00000000E+00  0.00000000E+00
  0.00000000E+00  0.00000000E+00  0.00000000E+00
  0.00000000E+00  0.00000000E+00  0.00000000E+00
  0.00000000E+00  0.00000000E+00  0.00000000E+00
  0.00000000E+00  0.00000000E+00  0.00000000E+00
  0.00000000E+00  0.00000000E+00  0.00000000E+00
  0.00000000E+00  0.00000000E+00  0.00000000E+00
  0.00000000E+00  0.00000000E+00  0.00000000E+00
  0.00000000E+00  0.00000000E+00  0.00000000E+00
  0.00000000E+00  0.00000000E+00  0.00000000E+00
  0.00000000E+00  0.00000000E+00  0.00000000E+00
  0.00000000E+00  0.00000000E+00  0.00000000E+00
  0.00000000E+00  0.00000000E+00  0.00000000E+00
  0.00000000E+00  0.00000000E+00  0.00000000E+00
  0.00000000E+00  0.00000000E+00  0.00000000E+00
  0.00000000E+00  0.00000000E+00  0.00000000E+00
  0.00000000E+00  0.00000000E+00  0.00000000E+00
  0.00000000E+00  0.00000000E+00  0.00000000E+00
  0.00000000E+00  0.00000000E+00  0.00000000E+00
  0.00000000E+00  0.00000000E+00  0.00000000E+00
  0.00000000E+00  0.00000000E+00  0.00000000E+00
  0.00000000E+00  0.00000000E+00  0.00000000E+00
  0.00000000E+00  0.00000000E+00  0.00000000E+00
  0.00000000E+00  0.00000000E+00  0.00000000E+00
  0.00000000E+00  0.00000000E+00  0.00000000E+00
  0.00000000E+00  0.00000000E+00  0.00000000E+00
  0.00000000E+00  0.00000000E+00  0.00000000E+00
  0.00000000E+00  0.00000000E+00  0.00000000E+00
  0.00000000E+00  0.00000000E+00  0.00000000E+00
  0.00000000E+00  0.00000000E+00  0.00000000E+00
  0.00000000E+00  0.00000000E+00  0.00000000E+00
  0.00000000E+00  0.00000000E+00  0.00000000E+00
  0.00000000E+00  0.00000000E+00  0.00000000E+00
  0.00000000E+00  0.00000000E+00  0.00000000E+00
  0.00000000E+00  0.00000000E+00  0.00000000E+00
  0.00000000E+00  0.00000000E+00  0.00000000E+00
  0.00000000E+00  0.00000000E+00  0.00000000E+00
  0.00000000E+00  0.00000000E+00  0.00000000E+00
  0.00000000E+00  0.00000000E+00  0.00000000E+00
  0.00000000E+00  0.00000000E+00  0.00000000E+00
  0.00000000E+00  0.00000000E+00  0.00000000E+00
  0.00000000E+00  0.00000000E+00  0.00000000E+00
  0.00000000E+00  0.00000000E+00  0.00000000E+00
  0.00000000E+00  0.00000000E+00  0.00000000E+00
  0.00000000E+00  0.00000000E+00  0.00000000E+00
  0.00000000E+00  0.00000000E+00  0.00000000E+00
  0.00000000E+00  0.00000000E+00  0.00000000E+00
  0.00000000E+00  0.00000000E+00  0.00000000E+00
  0.00000000E+00  0.00000000E+00  0.00000000E+00
  0.00000000E+00  0.00000000E+00  0.00000000E+00
  0.00000000E+00  0.00000000E+00  0.00000000E+00
  0.00000000E+00  0.00000000E+00  0.00000000E+00
  0.00000000E+00  0.00000000E+00  0.00000000E+00
  0.00000000E+00  0.00000000E+00  0.00000000E+00
  0.00000000E+00  0.00000000E+00  0.00000000E+00
