In24 Ga30 Cu42 Ag12 Se108               
   1.0000000000000000     
    15.9408412125117689    0.0012926177164859   -7.1694998570066257
    -3.2252697344362291   15.6223918229749756   -7.1797143146324283
     0.0186843499995731    0.0235657006057323   21.3657245145068480
   In   Ga   Cu   Ag   Se
    24    30    42    12   108
Direct
  0.1709954047458098  0.5012624736759932  0.0041840927212675
  0.8395630832438528  0.5011529146739022  0.0024801657908071
  0.4967931799155068  0.8318241323246696  0.0000744651429869
  0.8369988719040222  0.1679631236636254  0.0028408765821766
  0.1653196921282429  0.4981886465390488  0.3324498357158632
  0.4999364899592749  0.1669904884086648  0.3331817093910630
  0.1662607328972143  0.5026484630299919  0.6657177983323308
  0.8311645562252039  0.5015830225110633  0.6633245136194930
  0.1646697681464389  0.8304098907546589  0.6664621786522744
  0.4958458488056436  0.8261595363726357  0.6654082622049415
  0.8385881307599021  0.8280890082783259  0.6656420533192176
  0.5002976295511559  0.1645875518569753  0.6647275838744875
  0.8337783277884228  0.1673250626684748  0.6631614867091642
  0.2517117922545609  0.7540580168395437  0.1685307730437557
  0.9218572006679224  0.7538266711896284  0.1690343539695718
  0.5872820672957033  0.0842678643269110  0.1680531232915214
  0.9164485020311801  0.0847963675655663  0.1686169590959921
  0.5814858608532560  0.7456177436474150  0.4956505807459735
  0.5834665800509100  0.0792317814439016  0.4965106321934982
  0.9160915610698837  0.0812005651555765  0.4958942821871233
  0.5848524244593847  0.4241279695379774  0.8324147727101661
  0.9172453237563332  0.4181124459488785  0.8334040781280407
  0.5843472459977335  0.0799272842848424  0.8355577580198101
  0.9198640535789409  0.0799868845163303  0.8356222221903451
  0.4954471765439550  0.5060508249279607  0.0010298837961429
  0.1683356091135195  0.8379034460498076  0.0012898641178083
  0.8330142934608773  0.8316754972846852  0.9971799525198506
  0.1668054486455048  0.1663105815599337  0.0032049226956374
  0.4953519718519672  0.1611258578653079  0.0028507832334483
  0.5005308940529574  0.4956463199670509  0.3312445074682344
  0.8345702090173646  0.4974920406685825  0.3329976977709563
  0.1642286031678495  0.8354013670751073  0.3351842337208240
  0.5041356436575697  0.8346227553558805  0.3315028051243658
  0.8332729189338934  0.8293684893059989  0.3331591837455932
  0.1660716664721207  0.1700267745892816  0.3333514779148601
  0.8340507056466322  0.1725967344996491  0.3377834139916587
  0.4997214390904858  0.5072607964847577  0.6653661098888719
  0.1631499002275589  0.1660417014582549  0.6641741806331112
  0.2499977785236851  0.4138178947391680  0.1659038246247775
  0.5824576216262969  0.4153283582063310  0.1690423839988995
  0.9206536496793021  0.4180152105105961  0.1714023741175055
  0.5806460579636834  0.7501679849483693  0.1696706072083600
  0.2464855074161676  0.0827565284652394  0.1677285496507608
  0.2458739680480235  0.4187595638864394  0.4973482303127099
  0.5830277202702163  0.4232136143460892  0.4986019736270748
  0.9179613013625882  0.4173784362401491  0.4975463854283220
  0.2478498433418963  0.7458544657280655  0.4971480502496206
  0.9151280730517826  0.7440073918094683  0.4937040429148638
  0.2434430157673688  0.0807563433141709  0.4952039944575546
  0.2495734550413644  0.4172733612183279  0.8333708587154831
  0.2494776635563767  0.7528906364451089  0.8357362708644089
  0.5822029850089478  0.7496888478470893  0.8340386808935989
  0.9185180026689110  0.7531941222167973  0.8356825378963180
  0.2491597154409675  0.0811821607721868  0.8365137376428393
  0.0057988747659152  0.3376399983222100  0.0102934297426884
  0.3395667566393072  0.3372776570069149  0.0036442424221761
  0.9989960962936095  0.6770911574557488  0.0014535846867219
  0.3386796211264453  0.6661202113970717  0.0017880999892057
  0.6638940213766418  0.6683345327662735  0.9982718858446518
  0.0047157455409135  0.9964036021778213  0.0030042352417325
  0.3232113923361624  0.9970108134807276  0.9987537497563679
  0.6666543127326534  0.9982785185002001  0.9969114015349234
  0.9990219853986986  0.3326843253471878  0.3339673818735989
  0.3335151472787459  0.3365527079194450  0.3337664598216250
  0.6712888201916485  0.3380997903073961  0.3379056946731680
  0.0020180183408129  0.6679308365278871  0.3369107770338857
  0.6660807887684541  0.6632653256127483  0.3300719216262848
  0.0057452561221893  0.0026849691843509  0.3373065495554144
  0.3252817831982995  0.9983046028242271  0.3312069346292290
  0.6686342388124018  0.9984291774851570  0.3322887870880891
  0.0019383629383825  0.3334656847168702  0.6597873202024473
  0.6671582627470301  0.3377426920437401  0.6641005376147291
  0.9984327910920499  0.6677866802693231  0.6634225564284790
  0.3329537880702560  0.6652138217182966  0.6659222545743759
  0.6697864340632975  0.6655781210750220  0.6683337329918757
  0.0011721238481357  0.9931256625351992  0.6615793563880672
  0.0825655098391422  0.5830265919371129  0.1692879178581492
  0.4224767784504877  0.5809222241171241  0.1677031835360907
  0.0851532215746431  0.9195936737855703  0.1672355388456097
  0.4130855997975189  0.9176155597180369  0.1672911844944451
  0.0887799984767739  0.2478831434235502  0.1680685168375575
  0.7528587004506022  0.2537562971751655  0.1721174593202832
  0.0806783525065384  0.5839947011409024  0.4985352649931087
  0.4173258469570840  0.5773616343844736  0.5003762764526485
  0.7487082763139625  0.5795423869031850  0.4927722674923913
  0.0781453250716737  0.9102242177688709  0.4936290540018931
  0.4069353356613874  0.9136962941391999  0.4914961322600107
  0.7535296159266025  0.9086526250101272  0.4920791611120805
  0.0802624208470704  0.2472482429633800  0.4946730557211225
  0.7510044779410165  0.2546738615876336  0.4973402698899321
  0.4139917180294432  0.5867989057009666  0.8339088073975347
  0.7484598317183071  0.5912578502841583  0.8327939736717127
  0.0866125196995924  0.9152993023939118  0.8373068624840414
  0.4175837472825350  0.9158943027420179  0.8388840741182833
  0.7542532260486894  0.9091665084519036  0.8388786343307828
  0.7507753931129173  0.2558322857393165  0.8322633545027145
  0.6618597532075867  0.3276941750201061  0.0053720942707116
  0.3336547762719704  0.6618027278164149  0.3290764054980215
  0.3305843235767725  0.3358591761809606  0.6667902596288471
  0.3190187523976107  0.9932443666631912  0.6583568475350461
  0.6695191418950159  0.9953770047976533  0.6682708837688338
  0.7430423437237863  0.5864022970640903  0.1657031889223148
  0.7562612367498929  0.9166990023790405  0.1733060668201176
  0.4133657759520375  0.2516165803589985  0.1652151720437800
  0.4179108453001703  0.2610943323097104  0.5010808156593995
  0.0883707215115095  0.5919985130128325  0.8365841551702076
  0.0862666983326505  0.2426834294721374  0.8330132857401367
  0.4167528503170530  0.2533871564673547  0.8425123254086770
  0.1249214595157611  0.4605564839113541  0.0927687413245408
  0.4601955828146842  0.4588235620632020  0.0848831805269725
  0.7976732654445797  0.4555342611852495  0.0894732933104763
  0.1197247826551475  0.7984258001020237  0.0801938203773958
  0.4547471485866410  0.7922287780619897  0.0912112993651704
  0.7877034511561831  0.7865965974375015  0.0743817401533420
  0.1226023783628634  0.1225878928645372  0.0838958661250828
  0.4479238149105953  0.1146122964282696  0.0767511560977283
  0.7795096873155245  0.1265269708245498  0.0844743319631434
  0.1172853751081746  0.4574936927420126  0.4195098060246352
  0.4546697671890811  0.4572587143985842  0.4137500341461831
  0.7931012205851005  0.4578338524529144  0.4161019241480446
  0.1232183122529591  0.7895544694695502  0.4164281464161022
  0.4565719575603353  0.8001670947573416  0.4125634667378577
  0.7896698505159989  0.7839295722355644  0.4119984412523365
  0.1232330166306070  0.1273565507488996  0.4150018021392867
  0.4469588714993620  0.1185267789975981  0.4123247043565996
  0.7817292476369531  0.1276941663917270  0.4119981399886754
  0.1234319385781504  0.4528332694655006  0.7504534903648263
  0.4547238387278369  0.4706483091092935  0.7470995465011043
  0.7818565357245504  0.4637816777661996  0.7511690709803176
  0.1195283865511385  0.7879210755301571  0.7546434526000638
  0.4520507336305144  0.7894955491262579  0.7568444271173433
  0.7898079833306468  0.7884663929661713  0.7538770005642590
  0.1257921368914978  0.1113626399088261  0.7418745490603769
  0.4534602937159562  0.1224558531180406  0.7497694259050789
  0.7911259952007796  0.1329197834099745  0.7550923583396383
  0.3066238077820742  0.6271259332773056  0.0875025314012916
  0.6161908352776493  0.6317441985081018  0.0782072013412218
  0.9735687041074073  0.6286173788468616  0.0845615841543434
  0.2926436248975719  0.9612848475210356  0.0867941210645924
  0.6313021932954186  0.9576413342966248  0.0789848750879827
  0.9606579207657475  0.9518805650422948  0.0806164717187272
  0.2844278344698097  0.2941925912699404  0.0763590677968793
  0.6201435937839790  0.2844586131653131  0.0918671913996789
  0.9706733589747572  0.2984907806434478  0.0941340498265930
  0.2990044145639175  0.6257679029888052  0.4245919161637630
  0.6264813713757746  0.6155168042899746  0.4079566205321470
  0.9596651171134596  0.6216783890108744  0.4135904472808818
  0.2878246898938173  0.9579018474818568  0.4141617799311490
  0.6340232717580108  0.9508323670049137  0.4118711467267531
  0.9596148512920166  0.9490266078409633  0.4085943818161581
  0.2845002020256402  0.2984464189353631  0.4109696071729942
  0.6311596841482370  0.3015764144950879  0.4207797256903305
  0.9603447225592632  0.2926548435517375  0.4168140235427913
  0.2977762524468091  0.6342776038935511  0.7552621900272598
  0.6257918975997327  0.6294961804052619  0.7498473695382728
  0.9591547445838273  0.6362530726041484  0.7487831675897851
  0.2977445307802427  0.9604297389469778  0.7609705972573124
  0.6344017465873577  0.9483883464744807  0.7566625828912095
  0.9732508132744826  0.9561980715379832  0.7499768462880994
  0.2840996695547489  0.2901495330420687  0.7504296073031966
  0.6341141009860962  0.2945019514742171  0.7470856804191968
  0.9662524340406833  0.2956783266377627  0.7436145950801958
  0.2119165994864858  0.3675520371051846  0.2459133270598102
  0.5486710522821738  0.3755805997093447  0.2552328880613999
  0.8768609920486625  0.3729555100912947  0.2513265094349038
  0.1981237969251595  0.7091980403011746  0.2507614379904126
  0.5423898485477281  0.7043884809161227  0.2510331520927593
  0.8807452750918401  0.7096930556500993  0.2576478256696575
  0.2053966702984127  0.0421038143151691  0.2506238308415618
  0.5422437914023917  0.0304947720883462  0.2493452470342419
  0.8830587387688666  0.0495256384942877  0.2650976385264556
  0.1999474402114600  0.3697913322641355  0.5710771936882040
  0.5499081300431712  0.3879269628658264  0.5880337271406120
  0.8789179649571039  0.3698111917189522  0.5775121375033905
  0.2096582082738010  0.6988889531282396  0.5784502822942486
  0.5426001806845235  0.6941516728169290  0.5820139249314735
  0.8759767901363347  0.6955713526152252  0.5729295190527708
  0.1923032408680996  0.0401860500774234  0.5722874157325748
  0.5335636223891029  0.0273344182915025  0.5760598006582356
  0.8754137104616646  0.0286727071406787  0.5805646691437900
  0.2196706763360012  0.3736605966686923  0.9181407260457704
  0.5419349029819642  0.3873547417900483  0.9238649436340722
  0.8810658445097062  0.3641583867493807  0.9193771477525701
  0.2216562115207239  0.7186461106932285  0.9274183236487872
  0.5416983237136463  0.7006581062540249  0.9123112042214103
  0.8749492753596968  0.7081371597747861  0.9150255982295690
  0.2044223577596540  0.0403525127945272  0.9182921620881288
  0.5386981119491310  0.0371877400125911  0.9228416462313334
  0.8773187347808502  0.0278712503610379  0.9198543484516648
  0.0358760667903510  0.5476580142556955  0.2486617713741026
  0.3786834486434074  0.5319985427168348  0.2430802705250130
  0.7065742882388122  0.5371862852932097  0.2534997107792663
  0.0502357390863608  0.8877570115267943  0.2555395023816587
  0.3821686341128085  0.8863930472975809  0.2571254609008449
  0.7067002055011997  0.8706262434401069  0.2551600798274762
  0.0475290556188668  0.2178016047133795  0.2536739984265921
  0.3639134441091656  0.2095487762069155  0.2499952417398674
  0.7156999690689574  0.2196426899933499  0.2578584792787382
  0.0345761593194212  0.5470217267611233  0.5786954580913246
  0.3719033485032881  0.5434516546576944  0.5818368965133303
  0.7027938739502346  0.5491104041599684  0.5758081742112608
  0.0341419417716580  0.8718698623298664  0.5738058594331648
  0.3689522281940327  0.8686313403656598  0.5713610014816553
  0.7141340247260359  0.8737617834371534  0.5754286285275327
  0.0465030109085518  0.2146845047129560  0.5830224265828434
  0.3653613266409437  0.2014859531198496  0.5758944331278499
  0.7064554056144132  0.2197273338020409  0.5792455051372585
  0.0417918372543440  0.5543771295332292  0.9251287063093159
  0.3722628642360633  0.5444894785835643  0.9139414477939951
  0.7140130303883652  0.5562851563517768  0.9195863115219325
  0.0434236269855859  0.8774383812182407  0.9178396447093178
  0.3660292179283218  0.8805209815041408  0.9156248656864889
  0.7071247642536989  0.8745139317984680  0.9179062546545893
  0.0461691807759621  0.2154993457017937  0.9297569701126847
  0.3714355933408484  0.2057291876404364  0.9257917408421648
  0.7114408988593226  0.2126734089462374  0.9116514775780189

  0.00000000E+00  0.00000000E+00  0.00000000E+00
  0.00000000E+00  0.00000000E+00  0.00000000E+00
  0.00000000E+00  0.00000000E+00  0.00000000E+00
  0.00000000E+00  0.00000000E+00  0.00000000E+00
  0.00000000E+00  0.00000000E+00  0.00000000E+00
  0.00000000E+00  0.00000000E+00  0.00000000E+00
  0.00000000E+00  0.00000000E+00  0.00000000E+00
  0.00000000E+00  0.00000000E+00  0.00000000E+00
  0.00000000E+00  0.00000000E+00  0.00000000E+00
  0.00000000E+00  0.00000000E+00  0.00000000E+00
  0.00000000E+00  0.00000000E+00  0.00000000E+00
  0.00000000E+00  0.00000000E+00  0.00000000E+00
  0.00000000E+00  0.00000000E+00  0.00000000E+00
  0.00000000E+00  0.00000000E+00  0.00000000E+00
  0.00000000E+00  0.00000000E+00  0.00000000E+00
  0.00000000E+00  0.00000000E+00  0.00000000E+00
  0.00000000E+00  0.00000000E+00  0.00000000E+00
  0.00000000E+00  0.00000000E+00  0.00000000E+00
  0.00000000E+00  0.00000000E+00  0.00000000E+00
  0.00000000E+00  0.00000000E+00  0.00000000E+00
  0.00000000E+00  0.00000000E+00  0.00000000E+00
  0.00000000E+00  0.00000000E+00  0.00000000E+00
  0.00000000E+00  0.00000000E+00  0.00000000E+00
  0.00000000E+00  0.00000000E+00  0.00000000E+00
  0.00000000E+00  0.00000000E+00  0.00000000E+00
  0.00000000E+00  0.00000000E+00  0.00000000E+00
  0.00000000E+00  0.00000000E+00  0.00000000E+00
  0.00000000E+00  0.00000000E+00  0.00000000E+00
  0.00000000E+00  0.00000000E+00  0.00000000E+00
  0.00000000E+00  0.00000000E+00  0.00000000E+00
  0.00000000E+00  0.00000000E+00  0.00000000E+00
  0.00000000E+00  0.00000000E+00  0.00000000E+00
  0.00000000E+00  0.00000000E+00  0.00000000E+00
  0.00000000E+00  0.00000000E+00  0.00000000E+00
  0.00000000E+00  0.00000000E+00  0.00000000E+00
  0.00000000E+00  0.00000000E+00  0.00000000E+00
  0.00000000E+00  0.00000000E+00  0.00000000E+00
  0.00000000E+00  0.00000000E+00  0.00000000E+00
  0.00000000E+00  0.00000000E+00  0.00000000E+00
  0.00000000E+00  0.00000000E+00  0.00000000E+00
  0.00000000E+00  0.00000000E+00  0.00000000E+00
  0.00000000E+00  0.00000000E+00  0.00000000E+00
  0.00000000E+00  0.00000000E+00  0.00000000E+00
  0.00000000E+00  0.00000000E+00  0.00000000E+00
  0.00000000E+00  0.00000000E+00  0.00000000E+00
  0.00000000E+00  0.00000000E+00  0.00000000E+00
  0.00000000E+00  0.00000000E+00  0.00000000E+00
  0.00000000E+00  0.00000000E+00  0.00000000E+00
  0.00000000E+00  0.00000000E+00  0.00000000E+00
  0.00000000E+00  0.00000000E+00  0.00000000E+00
  0.00000000E+00  0.00000000E+00  0.00000000E+00
  0.00000000E+00  0.00000000E+00  0.00000000E+00
  0.00000000E+00  0.00000000E+00  0.00000000E+00
  0.00000000E+00  0.00000000E+00  0.00000000E+00
  0.00000000E+00  0.00000000E+00  0.00000000E+00
  0.00000000E+00  0.00000000E+00  0.00000000E+00
  0.00000000E+00  0.00000000E+00  0.00000000E+00
  0.00000000E+00  0.00000000E+00  0.00000000E+00
  0.00000000E+00  0.00000000E+00  0.00000000E+00
  0.00000000E+00  0.00000000E+00  0.00000000E+00
  0.00000000E+00  0.00000000E+00  0.00000000E+00
  0.00000000E+00  0.00000000E+00  0.00000000E+00
  0.00000000E+00  0.00000000E+00  0.00000000E+00
  0.00000000E+00  0.00000000E+00  0.00000000E+00
  0.00000000E+00  0.00000000E+00  0.00000000E+00
  0.00000000E+00  0.00000000E+00  0.00000000E+00
  0.00000000E+00  0.00000000E+00  0.00000000E+00
  0.00000000E+00  0.00000000E+00  0.00000000E+00
  0.00000000E+00  0.00000000E+00  0.00000000E+00
  0.00000000E+00  0.00000000E+00  0.00000000E+00
  0.00000000E+00  0.00000000E+00  0.00000000E+00
  0.00000000E+00  0.00000000E+00  0.00000000E+00
  0.00000000E+00  0.00000000E+00  0.00000000E+00
  0.00000000E+00  0.00000000E+00  0.00000000E+00
  0.00000000E+00  0.00000000E+00  0.00000000E+00
  0.00000000E+00  0.00000000E+00  0.00000000E+00
  0.00000000E+00  0.00000000E+00  0.00000000E+00
  0.00000000E+00  0.00000000E+00  0.00000000E+00
  0.00000000E+00  0.00000000E+00  0.00000000E+00
  0.00000000E+00  0.00000000E+00  0.00000000E+00
  0.00000000E+00  0.00000000E+00  0.00000000E+00
  0.00000000E+00  0.00000000E+00  0.00000000E+00
  0.00000000E+00  0.00000000E+00  0.00000000E+00
  0.00000000E+00  0.00000000E+00  0.00000000E+00
  0.00000000E+00  0.00000000E+00  0.00000000E+00
  0.00000000E+00  0.00000000E+00  0.00000000E+00
  0.00000000E+00  0.00000000E+00  0.00000000E+00
  0.00000000E+00  0.00000000E+00  0.00000000E+00
  0.00000000E+00  0.00000000E+00  0.00000000E+00
  0.00000000E+00  0.00000000E+00  0.00000000E+00
  0.00000000E+00  0.00000000E+00  0.00000000E+00
  0.00000000E+00  0.00000000E+00  0.00000000E+00
  0.00000000E+00  0.00000000E+00  0.00000000E+00
  0.00000000E+00  0.00000000E+00  0.00000000E+00
  0.00000000E+00  0.00000000E+00  0.00000000E+00
  0.00000000E+00  0.00000000E+00  0.00000000E+00
  0.00000000E+00  0.00000000E+00  0.00000000E+00
  0.00000000E+00  0.00000000E+00  0.00000000E+00
  0.00000000E+00  0.00000000E+00  0.00000000E+00
  0.00000000E+00  0.00000000E+00  0.00000000E+00
  0.00000000E+00  0.00000000E+00  0.00000000E+00
  0.00000000E+00  0.00000000E+00  0.00000000E+00
  0.00000000E+00  0.00000000E+00  0.00000000E+00
  0.00000000E+00  0.00000000E+00  0.00000000E+00
  0.00000000E+00  0.00000000E+00  0.00000000E+00
  0.00000000E+00  0.00000000E+00  0.00000000E+00
  0.00000000E+00  0.00000000E+00  0.00000000E+00
  0.00000000E+00  0.00000000E+00  0.00000000E+00
  0.00000000E+00  0.00000000E+00  0.00000000E+00
  0.00000000E+00  0.00000000E+00  0.00000000E+00
  0.00000000E+00  0.00000000E+00  0.00000000E+00
  0.00000000E+00  0.00000000E+00  0.00000000E+00
  0.00000000E+00  0.00000000E+00  0.00000000E+00
  0.00000000E+00  0.00000000E+00  0.00000000E+00
  0.00000000E+00  0.00000000E+00  0.00000000E+00
  0.00000000E+00  0.00000000E+00  0.00000000E+00
  0.00000000E+00  0.00000000E+00  0.00000000E+00
  0.00000000E+00  0.00000000E+00  0.00000000E+00
  0.00000000E+00  0.00000000E+00  0.00000000E+00
  0.00000000E+00  0.00000000E+00  0.00000000E+00
  0.00000000E+00  0.00000000E+00  0.00000000E+00
  0.00000000E+00  0.00000000E+00  0.00000000E+00
  0.00000000E+00  0.00000000E+00  0.00000000E+00
  0.00000000E+00  0.00000000E+00  0.00000000E+00
  0.00000000E+00  0.00000000E+00  0.00000000E+00
  0.00000000E+00  0.00000000E+00  0.00000000E+00
  0.00000000E+00  0.00000000E+00  0.00000000E+00
  0.00000000E+00  0.00000000E+00  0.00000000E+00
  0.00000000E+00  0.00000000E+00  0.00000000E+00
  0.00000000E+00  0.00000000E+00  0.00000000E+00
  0.00000000E+00  0.00000000E+00  0.00000000E+00
  0.00000000E+00  0.00000000E+00  0.00000000E+00
  0.00000000E+00  0.00000000E+00  0.00000000E+00
  0.00000000E+00  0.00000000E+00  0.00000000E+00
  0.00000000E+00  0.00000000E+00  0.00000000E+00
  0.00000000E+00  0.00000000E+00  0.00000000E+00
  0.00000000E+00  0.00000000E+00  0.00000000E+00
  0.00000000E+00  0.00000000E+00  0.00000000E+00
  0.00000000E+00  0.00000000E+00  0.00000000E+00
  0.00000000E+00  0.00000000E+00  0.00000000E+00
  0.00000000E+00  0.00000000E+00  0.00000000E+00
  0.00000000E+00  0.00000000E+00  0.00000000E+00
  0.00000000E+00  0.00000000E+00  0.00000000E+00
  0.00000000E+00  0.00000000E+00  0.00000000E+00
  0.00000000E+00  0.00000000E+00  0.00000000E+00
  0.00000000E+00  0.00000000E+00  0.00000000E+00
  0.00000000E+00  0.00000000E+00  0.00000000E+00
  0.00000000E+00  0.00000000E+00  0.00000000E+00
  0.00000000E+00  0.00000000E+00  0.00000000E+00
  0.00000000E+00  0.00000000E+00  0.00000000E+00
  0.00000000E+00  0.00000000E+00  0.00000000E+00
  0.00000000E+00  0.00000000E+00  0.00000000E+00
  0.00000000E+00  0.00000000E+00  0.00000000E+00
  0.00000000E+00  0.00000000E+00  0.00000000E+00
  0.00000000E+00  0.00000000E+00  0.00000000E+00
  0.00000000E+00  0.00000000E+00  0.00000000E+00
  0.00000000E+00  0.00000000E+00  0.00000000E+00
  0.00000000E+00  0.00000000E+00  0.00000000E+00
  0.00000000E+00  0.00000000E+00  0.00000000E+00
  0.00000000E+00  0.00000000E+00  0.00000000E+00
  0.00000000E+00  0.00000000E+00  0.00000000E+00
  0.00000000E+00  0.00000000E+00  0.00000000E+00
  0.00000000E+00  0.00000000E+00  0.00000000E+00
  0.00000000E+00  0.00000000E+00  0.00000000E+00
  0.00000000E+00  0.00000000E+00  0.00000000E+00
  0.00000000E+00  0.00000000E+00  0.00000000E+00
  0.00000000E+00  0.00000000E+00  0.00000000E+00
  0.00000000E+00  0.00000000E+00  0.00000000E+00
  0.00000000E+00  0.00000000E+00  0.00000000E+00
  0.00000000E+00  0.00000000E+00  0.00000000E+00
  0.00000000E+00  0.00000000E+00  0.00000000E+00
  0.00000000E+00  0.00000000E+00  0.00000000E+00
  0.00000000E+00  0.00000000E+00  0.00000000E+00
  0.00000000E+00  0.00000000E+00  0.00000000E+00
  0.00000000E+00  0.00000000E+00  0.00000000E+00
  0.00000000E+00  0.00000000E+00  0.00000000E+00
  0.00000000E+00  0.00000000E+00  0.00000000E+00
  0.00000000E+00  0.00000000E+00  0.00000000E+00
  0.00000000E+00  0.00000000E+00  0.00000000E+00
  0.00000000E+00  0.00000000E+00  0.00000000E+00
  0.00000000E+00  0.00000000E+00  0.00000000E+00
  0.00000000E+00  0.00000000E+00  0.00000000E+00
  0.00000000E+00  0.00000000E+00  0.00000000E+00
  0.00000000E+00  0.00000000E+00  0.00000000E+00
  0.00000000E+00  0.00000000E+00  0.00000000E+00
  0.00000000E+00  0.00000000E+00  0.00000000E+00
  0.00000000E+00  0.00000000E+00  0.00000000E+00
  0.00000000E+00  0.00000000E+00  0.00000000E+00
  0.00000000E+00  0.00000000E+00  0.00000000E+00
  0.00000000E+00  0.00000000E+00  0.00000000E+00
  0.00000000E+00  0.00000000E+00  0.00000000E+00
  0.00000000E+00  0.00000000E+00  0.00000000E+00
  0.00000000E+00  0.00000000E+00  0.00000000E+00
  0.00000000E+00  0.00000000E+00  0.00000000E+00
  0.00000000E+00  0.00000000E+00  0.00000000E+00
  0.00000000E+00  0.00000000E+00  0.00000000E+00
  0.00000000E+00  0.00000000E+00  0.00000000E+00
  0.00000000E+00  0.00000000E+00  0.00000000E+00
  0.00000000E+00  0.00000000E+00  0.00000000E+00
  0.00000000E+00  0.00000000E+00  0.00000000E+00
  0.00000000E+00  0.00000000E+00  0.00000000E+00
  0.00000000E+00  0.00000000E+00  0.00000000E+00
  0.00000000E+00  0.00000000E+00  0.00000000E+00
  0.00000000E+00  0.00000000E+00  0.00000000E+00
  0.00000000E+00  0.00000000E+00  0.00000000E+00
  0.00000000E+00  0.00000000E+00  0.00000000E+00
  0.00000000E+00  0.00000000E+00  0.00000000E+00
  0.00000000E+00  0.00000000E+00  0.00000000E+00
  0.00000000E+00  0.00000000E+00  0.00000000E+00
  0.00000000E+00  0.00000000E+00  0.00000000E+00
  0.00000000E+00  0.00000000E+00  0.00000000E+00
  0.00000000E+00  0.00000000E+00  0.00000000E+00
  0.00000000E+00  0.00000000E+00  0.00000000E+00
  0.00000000E+00  0.00000000E+00  0.00000000E+00
  0.00000000E+00  0.00000000E+00  0.00000000E+00
  0.00000000E+00  0.00000000E+00  0.00000000E+00
