In48 Ga6 Ag54 Se108                     
   1.0000000000000000     
    16.8882097159376308    0.1114049708572844   -7.6188314208518193
    -3.5468985473066530   16.5096003296917075   -7.6154779660431426
    -0.1184918532115161   -0.1447024532679049   22.2675499711831790
   In   Ga   Ag   Se
    48     6    54   108
Direct
  0.1669846796786345  0.5044152836347706  0.0024296794124936
  0.5005219914530912  0.5017521321181420  0.0009686422243718
  0.8342770739897247  0.5050243453010523  0.0029767454668459
  0.5006530141610526  0.8320029961953921  0.9998201584726232
  0.8353633255610760  0.8326379047484664  0.0031721503457192
  0.1671080589136196  0.1668707671982048  0.0002311516824207
  0.5001881868709219  0.1659886153398062  0.0006295965398451
  0.8337330635040132  0.1664923279384496  0.0007820450543861
  0.1662324763723504  0.4997001106801022  0.3328922568545849
  0.4995461149781022  0.4987760381312825  0.3325835809310078
  0.1635366256123945  0.8319084016492937  0.3285152591798166
  0.4978338912427844  0.8312421451926397  0.3310755724520718
  0.8351043450998361  0.8335949263214886  0.3313292811865551
  0.1656071866978124  0.1670204100941106  0.3334455039665585
  0.4990297980928347  0.1659109316642073  0.3317809342187488
  0.5000771538874247  0.4999179564175620  0.6660257952672026
  0.8332570860027886  0.5002045866567713  0.6658282484467932
  0.1656547760709941  0.8326524499999408  0.6662371603871691
  0.4992053884560832  0.8318352154675637  0.6661092757286440
  0.8352720552241379  0.8320739559566164  0.6670088707620820
  0.1658885395942207  0.1670630192181548  0.6671617408500552
  0.4996891142054878  0.1676412268826155  0.6666939283848876
  0.8344421382249507  0.1677215638138350  0.6661870436384518
  0.2496212849474517  0.4168213100549281  0.1666726128553577
  0.5872680528726946  0.4172481963376171  0.1688651485670860
  0.9157912000048327  0.4189623203731969  0.1685779735008452
  0.5843125353536536  0.7503076728960849  0.1673091907912294
  0.2468668543863899  0.0791746012853949  0.1644007992642358
  0.5868556825882862  0.0817181237594582  0.1685233961835451
  0.9157177828071994  0.0852199849262050  0.1691052014800931
  0.2477926260588035  0.4184935768066396  0.5017799255451152
  0.5832462711882300  0.4159212433534378  0.4989459039313715
  0.9176360777555814  0.4144490455936136  0.4973775498365143
  0.2487249951804458  0.7492473455669995  0.4986918288420128
  0.5832564883341078  0.7497378667502659  0.4994382992351873
  0.9152939235165505  0.7465116785174857  0.4972445404603221
  0.2487578072770873  0.0836783478664032  0.4996160079260434
  0.5827307181838890  0.0827092920895254  0.4989686099752575
  0.9169330568838774  0.0842056322007139  0.4979374647810459
  0.2495895699303148  0.4195531531000825  0.8322387110269034
  0.5833369036586191  0.4172923953617911  0.8335992758426656
  0.9176606964877791  0.4186404516441442  0.8342111098544294
  0.2465051340721658  0.7483558602072335  0.8336629408243894
  0.5834509060728976  0.7486732832620362  0.8335006458630190
  0.9207685255833553  0.7492284785323307  0.8363349704567256
  0.2492033952104151  0.0829011884961517  0.8336598417471208
  0.5836740592130383  0.0826430869106716  0.8330327904266994
  0.9169263960851382  0.0828551341878381  0.8333296568475816
  0.1688646975708465  0.8320979927051937  0.0026909327557547
  0.8346624145286725  0.5003393898555686  0.3334592771731408
  0.8334477346270575  0.1661320623154126  0.3332393615958864
  0.1652653390292684  0.5001447178981664  0.6665017908755786
  0.2506458392014110  0.7519620463869003  0.1650158442191838
  0.9168665586561460  0.7511624736981517  0.1671948253581803
  0.9994370875933640  0.3330032105850123  0.0011187374393842
  0.3340135936014192  0.3365033772772321  0.0001278931883846
  0.6660252791168233  0.3319461417395644  0.9998080375670213
  0.0053727510934891  0.6722190149896292  0.0068511804812488
  0.3306942055268323  0.6685750212982242  0.0024561926582507
  0.6698982816463186  0.6704989874855514  0.0042334231710512
  0.0006052422731457  0.9978401795036334  0.0004513753127995
  0.3347071186725756  0.9970326774407710  0.0001790469492562
  0.6674301997302621  0.0009630347788985  0.0000610721295260
  0.9960113607929699  0.3327344399776706  0.3336627505036986
  0.3332162875646745  0.3301805122257875  0.3337421434548347
  0.6723797007007946  0.3358699808641035  0.3338541724738846
  0.9962468339275006  0.6636819820782094  0.3304230739104881
  0.3296309190258739  0.6680759126628431  0.3289240216565190
  0.6700808617136573  0.6644107739446028  0.3329724384771353
  0.9983702849540421  0.9987636825709174  0.3304778534024564
  0.3323768032249461  0.9963497112387074  0.3299905651233530
  0.6672423224804334  0.0034736146038625  0.3338674955893381
  0.9995827640817581  0.3382916890071073  0.6666441223502133
  0.3292251521544713  0.3353708173329650  0.6658587132476725
  0.6670755013921976  0.3323114797289577  0.6656949092724318
  0.0025846308592889  0.6631888669646031  0.6644885614712450
  0.3295813475094320  0.6643751587406328  0.6677954556190002
  0.6696378221004196  0.6682396659675760  0.6672802055887033
  0.9981896743046050  0.9983594767876127  0.6646630517756478
  0.3334360421422602  0.0003290614637095  0.6665635789631850
  0.6672685504784326  0.9999278445232562  0.6662440835413790
  0.0846096851536373  0.5875409726396867  0.1658519787908403
  0.4159204001743575  0.5852386967262575  0.1664582982806166
  0.7542020908009235  0.5850929418025288  0.1708509004975980
  0.0824091146282271  0.9107861265983814  0.1638208100642089
  0.4110105241181259  0.9143356488350420  0.1634568899875433
  0.7537184988587668  0.9179707409895173  0.1694430613953273
  0.0837507751038160  0.2506963011974435  0.1670029984631540
  0.4160819951441539  0.2486530685242272  0.1652479410016241
  0.7529310863237768  0.2531136729082135  0.1731333877988419
  0.0795268842078087  0.5823724104119350  0.4989977245681061
  0.4151578636794255  0.5830578337688266  0.4986585562855836
  0.7500708714900028  0.5806068106874989  0.4965522595085403
  0.0848613826758111  0.9141425691499165  0.4988039441295413
  0.4142534882907896  0.9172023186259466  0.4987975155792483
  0.7487919602921593  0.9154516584364032  0.4980000008532173
  0.0826787318288495  0.2524991874146565  0.5009022940712029
  0.4162616945230297  0.2484269846753548  0.4994715005061252
  0.7483708247274308  0.2466035336798313  0.4950973274599164
  0.0860548745399328  0.5843027763500999  0.8342649199996117
  0.4129831202576568  0.5827998255040399  0.8307909485787590
  0.7510857874860619  0.5838975722079525  0.8343423371955225
  0.0830769657225616  0.9156870304663087  0.8390612141964127
  0.4157089149472739  0.9149282228821676  0.8319738890140655
  0.7495450454425523  0.9155489709357951  0.8345931076178630
  0.0850645662291853  0.2527516968513837  0.8352999971758805
  0.4165944195205356  0.2499945669393284  0.8343265847260213
  0.7533791419996518  0.2529678374555644  0.8353569751192609
  0.1249495104614269  0.4591496236574955  0.0836020513104856
  0.4620134369701816  0.4600878062192137  0.0859513192269361
  0.7913754862271958  0.4585882068876188  0.0831608710652674
  0.1366823819040732  0.7926405791261857  0.0846248179898836
  0.4594828529979793  0.7913620469105993  0.0836881530451166
  0.8001994846884770  0.7915381965639412  0.0906354465709782
  0.1246300368624631  0.1249883395737470  0.0829464184381834
  0.4610446188170201  0.1228729092153031  0.0846168026532794
  0.7919078097653269  0.1273827016380125  0.0853148482292170
  0.1234227170906621  0.4577144543928924  0.4155422759321681
  0.4577773412535251  0.4570909299152532  0.4158062715483624
  0.7979271646299182  0.4613215686979046  0.4124607374799538
  0.1241409070949473  0.7888108862974477  0.4126810913532140
  0.4581550120911828  0.7918757319891938  0.4164641062306131
  0.7934512346021165  0.7915854510504090  0.4147514325161836
  0.1237289617575499  0.1256354313320571  0.4167587115252616
  0.4573170640542088  0.1232433219841482  0.4147584940391695
  0.7949272346273872  0.1264403658987732  0.4109378024111905
  0.1273846972967974  0.4623913579407741  0.7457185540424192
  0.4582826140955873  0.4582495055163349  0.7493052333809302
  0.7922904938709365  0.4585604333399118  0.7495450953320315
  0.1241991991724802  0.7924212596422748  0.7505942055640631
  0.4577328505259430  0.7889118404677262  0.7491178143173016
  0.7965912671146640  0.7924631363330192  0.7530556748316641
  0.1243792053169699  0.1249417793866598  0.7503877444576759
  0.4591839209628858  0.1253865073566800  0.7503365365583932
  0.7931138865139005  0.1260144288202412  0.7499673352396456
  0.2894881726711347  0.6330356198384592  0.0895856152443670
  0.6270472078344156  0.6252203603129445  0.0858775741664104
  0.9561560199202717  0.6346326581742403  0.0895462192270529
  0.2830272472543953  0.9509948092498064  0.0774596307180886
  0.6262941529513739  0.9565882233608249  0.0832192386513810
  0.9576946024825261  0.9597863526282282  0.0858682226659226
  0.2913239888340158  0.2924725633497829  0.0827818850385356
  0.6262411226199376  0.2903753590909446  0.0847895040360100
  0.9569867710936037  0.2930562446118543  0.0853407999144906
  0.2904965942601692  0.6254540852915937  0.4142795728841051
  0.6239332128672146  0.6242801314068416  0.4155234546181532
  0.9511827935110446  0.6176182598885021  0.4107085199865068
  0.2880470983422043  0.9578657773632884  0.4145513504681588
  0.6226228150014563  0.9572986969207022  0.4143817739253919
  0.9596620983709698  0.9585966916650648  0.4167923309329566
  0.2897876894586773  0.2927144697185895  0.4188733186038291
  0.6236048433212602  0.2913515450285047  0.4137468849138983
  0.9504883215430553  0.2830250876888201  0.4112855761579297
  0.2812308691565306  0.6183676050590208  0.7462176634862701
  0.6253511317234128  0.6247612760268737  0.7494112656163381
  0.9588348440534347  0.6244170118719055  0.7494530637060137
  0.2902587642585317  0.9580369195410015  0.7495504171478089
  0.6245055515869495  0.9569262852498355  0.7495318301053047
  0.9601386149912159  0.9576246589998476  0.7515562336618942
  0.2908385483898357  0.2923883739243891  0.7509214157635924
  0.6252286404719669  0.2922441165057492  0.7505199703782210
  0.9589984893280530  0.2938488396955634  0.7502014568036657
  0.2094000723250105  0.3753766714792945  0.2507156001253392
  0.5428445283771595  0.3742705184183492  0.2501084900717458
  0.8736504227597095  0.3839536446867768  0.2556731700065669
  0.2097860758778083  0.7133913493152164  0.2424028547274801
  0.5437987430760032  0.7080966658073109  0.2508000099141228
  0.8781787363252960  0.7121221820962518  0.2452158541156777
  0.2057148532057695  0.0407304888340150  0.2494610463354121
  0.5383132162049762  0.0392709430393126  0.2478339134517356
  0.8731617743655917  0.0499467819139880  0.2555388592303203
  0.2038831366940386  0.3832082778368857  0.5879317385281837
  0.5414861940234132  0.3748211972060247  0.5824309301286519
  0.8723767643148435  0.3750838070971767  0.5800163407177692
  0.2062186619915352  0.7075433094235350  0.5818669534293548
  0.5421396518435415  0.7079682923713122  0.5830004819017489
  0.8760083647782935  0.7067564416505192  0.5826857996046542
  0.2077206034310635  0.0424449730557868  0.5834383444285933
  0.5409753246304376  0.0423540141446637  0.5829822820312032
  0.8740731508291049  0.0424047581024993  0.5809542554196412
  0.2088868305932579  0.3804311297065723  0.9176954010725780
  0.5414699966007248  0.3763820582410631  0.9172530824282745
  0.8768661601774781  0.3802867784020947  0.9196896104331529
  0.2063057148006280  0.7158062141582988  0.9228162910877558
  0.5416891830651593  0.7064497962395180  0.9165218566115172
  0.8774224562179285  0.7086753403796919  0.9193722588071367
  0.2091321501404977  0.0415890573503432  0.9179477076781808
  0.5409737807351291  0.0412044487072194  0.9159753985195067
  0.8756636045839201  0.0415464898712230  0.9172801148147727
  0.0427015995327622  0.5414694039676604  0.2482317451589182
  0.3748566681067160  0.5410596625321134  0.2496267644673722
  0.7174433358558190  0.5387200918857857  0.2552734757419799
  0.0334188455351025  0.8682771756375018  0.2439089532177690
  0.3687540296129299  0.8671234270718600  0.2445046955720969
  0.7085325952449395  0.8757034784033024  0.2510691430197483
  0.0410364411549580  0.2093603189919193  0.2505502562623647
  0.3722367511171498  0.2044475538791275  0.2472236817958660
  0.7156685296991725  0.2046306281176982  0.2561199388629589
  0.0476735179884571  0.5361232087179530  0.5859891992337367
  0.3743064168321126  0.5417305965642072  0.5834015686140077
  0.7083551477530676  0.5409215393372691  0.5815058745300874
  0.0402427014971494  0.8720341635113726  0.5810382138093004
  0.3742582331340643  0.8737845637053567  0.5828556288555191
  0.7097931993512319  0.8736077926430639  0.5833684290562644
  0.0413414053055945  0.2096774748424650  0.5846174328234568
  0.3735519794541773  0.2091029640123381  0.5840043863553461
  0.7084938944078161  0.2071854316955779  0.5811277583616032
  0.0419316581388003  0.5446354216281506  0.9181647464963589
  0.3748275146577313  0.5444871698341771  0.9188176017249248
  0.7079136942862903  0.5429293392859122  0.9175991932579990
  0.0502828682529284  0.8709052829228412  0.9257836220179883
  0.3743588565348261  0.8708082144254377  0.9148939587972649
  0.7094124857833108  0.8729454977297522  0.9188542971293501
  0.0416672729471657  0.2083776914482698  0.9170953118246317
  0.3747375333028486  0.2078230548867097  0.9177941600308799
  0.7090011374920664  0.2073418441640342  0.9162681155706665

  0.00000000E+00  0.00000000E+00  0.00000000E+00
  0.00000000E+00  0.00000000E+00  0.00000000E+00
  0.00000000E+00  0.00000000E+00  0.00000000E+00
  0.00000000E+00  0.00000000E+00  0.00000000E+00
  0.00000000E+00  0.00000000E+00  0.00000000E+00
  0.00000000E+00  0.00000000E+00  0.00000000E+00
  0.00000000E+00  0.00000000E+00  0.00000000E+00
  0.00000000E+00  0.00000000E+00  0.00000000E+00
  0.00000000E+00  0.00000000E+00  0.00000000E+00
  0.00000000E+00  0.00000000E+00  0.00000000E+00
  0.00000000E+00  0.00000000E+00  0.00000000E+00
  0.00000000E+00  0.00000000E+00  0.00000000E+00
  0.00000000E+00  0.00000000E+00  0.00000000E+00
  0.00000000E+00  0.00000000E+00  0.00000000E+00
  0.00000000E+00  0.00000000E+00  0.00000000E+00
  0.00000000E+00  0.00000000E+00  0.00000000E+00
  0.00000000E+00  0.00000000E+00  0.00000000E+00
  0.00000000E+00  0.00000000E+00  0.00000000E+00
  0.00000000E+00  0.00000000E+00  0.00000000E+00
  0.00000000E+00  0.00000000E+00  0.00000000E+00
  0.00000000E+00  0.00000000E+00  0.00000000E+00
  0.00000000E+00  0.00000000E+00  0.00000000E+00
  0.00000000E+00  0.00000000E+00  0.00000000E+00
  0.00000000E+00  0.00000000E+00  0.00000000E+00
  0.00000000E+00  0.00000000E+00  0.00000000E+00
  0.00000000E+00  0.00000000E+00  0.00000000E+00
  0.00000000E+00  0.00000000E+00  0.00000000E+00
  0.00000000E+00  0.00000000E+00  0.00000000E+00
  0.00000000E+00  0.00000000E+00  0.00000000E+00
  0.00000000E+00  0.00000000E+00  0.00000000E+00
  0.00000000E+00  0.00000000E+00  0.00000000E+00
  0.00000000E+00  0.00000000E+00  0.00000000E+00
  0.00000000E+00  0.00000000E+00  0.00000000E+00
  0.00000000E+00  0.00000000E+00  0.00000000E+00
  0.00000000E+00  0.00000000E+00  0.00000000E+00
  0.00000000E+00  0.00000000E+00  0.00000000E+00
  0.00000000E+00  0.00000000E+00  0.00000000E+00
  0.00000000E+00  0.00000000E+00  0.00000000E+00
  0.00000000E+00  0.00000000E+00  0.00000000E+00
  0.00000000E+00  0.00000000E+00  0.00000000E+00
  0.00000000E+00  0.00000000E+00  0.00000000E+00
  0.00000000E+00  0.00000000E+00  0.00000000E+00
  0.00000000E+00  0.00000000E+00  0.00000000E+00
  0.00000000E+00  0.00000000E+00  0.00000000E+00
  0.00000000E+00  0.00000000E+00  0.00000000E+00
  0.00000000E+00  0.00000000E+00  0.00000000E+00
  0.00000000E+00  0.00000000E+00  0.00000000E+00
  0.00000000E+00  0.00000000E+00  0.00000000E+00
  0.00000000E+00  0.00000000E+00  0.00000000E+00
  0.00000000E+00  0.00000000E+00  0.00000000E+00
  0.00000000E+00  0.00000000E+00  0.00000000E+00
  0.00000000E+00  0.00000000E+00  0.00000000E+00
  0.00000000E+00  0.00000000E+00  0.00000000E+00
  0.00000000E+00  0.00000000E+00  0.00000000E+00
  0.00000000E+00  0.00000000E+00  0.00000000E+00
  0.00000000E+00  0.00000000E+00  0.00000000E+00
  0.00000000E+00  0.00000000E+00  0.00000000E+00
  0.00000000E+00  0.00000000E+00  0.00000000E+00
  0.00000000E+00  0.00000000E+00  0.00000000E+00
  0.00000000E+00  0.00000000E+00  0.00000000E+00
  0.00000000E+00  0.00000000E+00  0.00000000E+00
  0.00000000E+00  0.00000000E+00  0.00000000E+00
  0.00000000E+00  0.00000000E+00  0.00000000E+00
  0.00000000E+00  0.00000000E+00  0.00000000E+00
  0.00000000E+00  0.00000000E+00  0.00000000E+00
  0.00000000E+00  0.00000000E+00  0.00000000E+00
  0.00000000E+00  0.00000000E+00  0.00000000E+00
  0.00000000E+00  0.00000000E+00  0.00000000E+00
  0.00000000E+00  0.00000000E+00  0.00000000E+00
  0.00000000E+00  0.00000000E+00  0.00000000E+00
  0.00000000E+00  0.00000000E+00  0.00000000E+00
  0.00000000E+00  0.00000000E+00  0.00000000E+00
  0.00000000E+00  0.00000000E+00  0.00000000E+00
  0.00000000E+00  0.00000000E+00  0.00000000E+00
  0.00000000E+00  0.00000000E+00  0.00000000E+00
  0.00000000E+00  0.00000000E+00  0.00000000E+00
  0.00000000E+00  0.00000000E+00  0.00000000E+00
  0.00000000E+00  0.00000000E+00  0.00000000E+00
  0.00000000E+00  0.00000000E+00  0.00000000E+00
  0.00000000E+00  0.00000000E+00  0.00000000E+00
  0.00000000E+00  0.00000000E+00  0.00000000E+00
  0.00000000E+00  0.00000000E+00  0.00000000E+00
  0.00000000E+00  0.00000000E+00  0.00000000E+00
  0.00000000E+00  0.00000000E+00  0.00000000E+00
  0.00000000E+00  0.00000000E+00  0.00000000E+00
  0.00000000E+00  0.00000000E+00  0.00000000E+00
  0.00000000E+00  0.00000000E+00  0.00000000E+00
  0.00000000E+00  0.00000000E+00  0.00000000E+00
  0.00000000E+00  0.00000000E+00  0.00000000E+00
  0.00000000E+00  0.00000000E+00  0.00000000E+00
  0.00000000E+00  0.00000000E+00  0.00000000E+00
  0.00000000E+00  0.00000000E+00  0.00000000E+00
  0.00000000E+00  0.00000000E+00  0.00000000E+00
  0.00000000E+00  0.00000000E+00  0.00000000E+00
  0.00000000E+00  0.00000000E+00  0.00000000E+00
  0.00000000E+00  0.00000000E+00  0.00000000E+00
  0.00000000E+00  0.00000000E+00  0.00000000E+00
  0.00000000E+00  0.00000000E+00  0.00000000E+00
  0.00000000E+00  0.00000000E+00  0.00000000E+00
  0.00000000E+00  0.00000000E+00  0.00000000E+00
  0.00000000E+00  0.00000000E+00  0.00000000E+00
  0.00000000E+00  0.00000000E+00  0.00000000E+00
  0.00000000E+00  0.00000000E+00  0.00000000E+00
  0.00000000E+00  0.00000000E+00  0.00000000E+00
  0.00000000E+00  0.00000000E+00  0.00000000E+00
  0.00000000E+00  0.00000000E+00  0.00000000E+00
  0.00000000E+00  0.00000000E+00  0.00000000E+00
  0.00000000E+00  0.00000000E+00  0.00000000E+00
  0.00000000E+00  0.00000000E+00  0.00000000E+00
  0.00000000E+00  0.00000000E+00  0.00000000E+00
  0.00000000E+00  0.00000000E+00  0.00000000E+00
  0.00000000E+00  0.00000000E+00  0.00000000E+00
  0.00000000E+00  0.00000000E+00  0.00000000E+00
  0.00000000E+00  0.00000000E+00  0.00000000E+00
  0.00000000E+00  0.00000000E+00  0.00000000E+00
  0.00000000E+00  0.00000000E+00  0.00000000E+00
  0.00000000E+00  0.00000000E+00  0.00000000E+00
  0.00000000E+00  0.00000000E+00  0.00000000E+00
  0.00000000E+00  0.00000000E+00  0.00000000E+00
  0.00000000E+00  0.00000000E+00  0.00000000E+00
  0.00000000E+00  0.00000000E+00  0.00000000E+00
  0.00000000E+00  0.00000000E+00  0.00000000E+00
  0.00000000E+00  0.00000000E+00  0.00000000E+00
  0.00000000E+00  0.00000000E+00  0.00000000E+00
  0.00000000E+00  0.00000000E+00  0.00000000E+00
  0.00000000E+00  0.00000000E+00  0.00000000E+00
  0.00000000E+00  0.00000000E+00  0.00000000E+00
  0.00000000E+00  0.00000000E+00  0.00000000E+00
  0.00000000E+00  0.00000000E+00  0.00000000E+00
  0.00000000E+00  0.00000000E+00  0.00000000E+00
  0.00000000E+00  0.00000000E+00  0.00000000E+00
  0.00000000E+00  0.00000000E+00  0.00000000E+00
  0.00000000E+00  0.00000000E+00  0.00000000E+00
  0.00000000E+00  0.00000000E+00  0.00000000E+00
  0.00000000E+00  0.00000000E+00  0.00000000E+00
  0.00000000E+00  0.00000000E+00  0.00000000E+00
  0.00000000E+00  0.00000000E+00  0.00000000E+00
  0.00000000E+00  0.00000000E+00  0.00000000E+00
  0.00000000E+00  0.00000000E+00  0.00000000E+00
  0.00000000E+00  0.00000000E+00  0.00000000E+00
  0.00000000E+00  0.00000000E+00  0.00000000E+00
  0.00000000E+00  0.00000000E+00  0.00000000E+00
  0.00000000E+00  0.00000000E+00  0.00000000E+00
  0.00000000E+00  0.00000000E+00  0.00000000E+00
  0.00000000E+00  0.00000000E+00  0.00000000E+00
  0.00000000E+00  0.00000000E+00  0.00000000E+00
  0.00000000E+00  0.00000000E+00  0.00000000E+00
  0.00000000E+00  0.00000000E+00  0.00000000E+00
  0.00000000E+00  0.00000000E+00  0.00000000E+00
  0.00000000E+00  0.00000000E+00  0.00000000E+00
  0.00000000E+00  0.00000000E+00  0.00000000E+00
  0.00000000E+00  0.00000000E+00  0.00000000E+00
  0.00000000E+00  0.00000000E+00  0.00000000E+00
  0.00000000E+00  0.00000000E+00  0.00000000E+00
  0.00000000E+00  0.00000000E+00  0.00000000E+00
  0.00000000E+00  0.00000000E+00  0.00000000E+00
  0.00000000E+00  0.00000000E+00  0.00000000E+00
  0.00000000E+00  0.00000000E+00  0.00000000E+00
  0.00000000E+00  0.00000000E+00  0.00000000E+00
  0.00000000E+00  0.00000000E+00  0.00000000E+00
  0.00000000E+00  0.00000000E+00  0.00000000E+00
  0.00000000E+00  0.00000000E+00  0.00000000E+00
  0.00000000E+00  0.00000000E+00  0.00000000E+00
  0.00000000E+00  0.00000000E+00  0.00000000E+00
  0.00000000E+00  0.00000000E+00  0.00000000E+00
  0.00000000E+00  0.00000000E+00  0.00000000E+00
  0.00000000E+00  0.00000000E+00  0.00000000E+00
  0.00000000E+00  0.00000000E+00  0.00000000E+00
  0.00000000E+00  0.00000000E+00  0.00000000E+00
  0.00000000E+00  0.00000000E+00  0.00000000E+00
  0.00000000E+00  0.00000000E+00  0.00000000E+00
  0.00000000E+00  0.00000000E+00  0.00000000E+00
  0.00000000E+00  0.00000000E+00  0.00000000E+00
  0.00000000E+00  0.00000000E+00  0.00000000E+00
  0.00000000E+00  0.00000000E+00  0.00000000E+00
  0.00000000E+00  0.00000000E+00  0.00000000E+00
  0.00000000E+00  0.00000000E+00  0.00000000E+00
  0.00000000E+00  0.00000000E+00  0.00000000E+00
  0.00000000E+00  0.00000000E+00  0.00000000E+00
  0.00000000E+00  0.00000000E+00  0.00000000E+00
  0.00000000E+00  0.00000000E+00  0.00000000E+00
  0.00000000E+00  0.00000000E+00  0.00000000E+00
  0.00000000E+00  0.00000000E+00  0.00000000E+00
  0.00000000E+00  0.00000000E+00  0.00000000E+00
  0.00000000E+00  0.00000000E+00  0.00000000E+00
  0.00000000E+00  0.00000000E+00  0.00000000E+00
  0.00000000E+00  0.00000000E+00  0.00000000E+00
  0.00000000E+00  0.00000000E+00  0.00000000E+00
  0.00000000E+00  0.00000000E+00  0.00000000E+00
  0.00000000E+00  0.00000000E+00  0.00000000E+00
  0.00000000E+00  0.00000000E+00  0.00000000E+00
  0.00000000E+00  0.00000000E+00  0.00000000E+00
  0.00000000E+00  0.00000000E+00  0.00000000E+00
  0.00000000E+00  0.00000000E+00  0.00000000E+00
  0.00000000E+00  0.00000000E+00  0.00000000E+00
  0.00000000E+00  0.00000000E+00  0.00000000E+00
  0.00000000E+00  0.00000000E+00  0.00000000E+00
  0.00000000E+00  0.00000000E+00  0.00000000E+00
  0.00000000E+00  0.00000000E+00  0.00000000E+00
  0.00000000E+00  0.00000000E+00  0.00000000E+00
  0.00000000E+00  0.00000000E+00  0.00000000E+00
  0.00000000E+00  0.00000000E+00  0.00000000E+00
  0.00000000E+00  0.00000000E+00  0.00000000E+00
  0.00000000E+00  0.00000000E+00  0.00000000E+00
  0.00000000E+00  0.00000000E+00  0.00000000E+00
  0.00000000E+00  0.00000000E+00  0.00000000E+00
  0.00000000E+00  0.00000000E+00  0.00000000E+00
  0.00000000E+00  0.00000000E+00  0.00000000E+00
  0.00000000E+00  0.00000000E+00  0.00000000E+00
  0.00000000E+00  0.00000000E+00  0.00000000E+00
  0.00000000E+00  0.00000000E+00  0.00000000E+00
  0.00000000E+00  0.00000000E+00  0.00000000E+00
  0.00000000E+00  0.00000000E+00  0.00000000E+00
  0.00000000E+00  0.00000000E+00  0.00000000E+00
  0.00000000E+00  0.00000000E+00  0.00000000E+00
  0.00000000E+00  0.00000000E+00  0.00000000E+00
