In6 Ga48 Cu48 Ag6 Se108                 
   1.0000000000000000     
    15.6835866272688431    0.0014513304392354   -7.0533410897160209
    -3.1770398883088031   15.3660192449880402   -7.0609184753095384
    -0.0014596439210192   -0.0045374817156469   20.9503093569289121
   In   Ga   Cu   Ag   Se
     6    48    48     6   108
Direct
  0.8323634720241415  0.8289214672729912  0.9987857436318279
  0.4974020045388059  0.1666720662113335  0.3316280931556648
  0.4967371552958610  0.8321339441957818  0.6669366107555277
  0.9182989771850671  0.4146606736479015  0.1662124178164888
  0.9178224904254151  0.0862544658240552  0.1680562798257839
  0.9175832901532814  0.0836950132556780  0.8341879180966316
  0.1667929425432959  0.5000460060849576  0.9995734363048712
  0.4965505247332302  0.4989721286768187  0.9985614337310693
  0.8326965384488787  0.5006707929108316  0.9965267502232464
  0.1665283532919162  0.8317581547316379  0.9998084984121434
  0.4992185540496905  0.8329245033042483  0.9992830508527391
  0.1712598424337344  0.1705542672495781  0.0019347713146374
  0.4980799462712824  0.1665037572391554  0.9996293308426729
  0.8303814573051937  0.1652058315758396  0.9978750970020016
  0.1679486136996431  0.5011061656273412  0.3358067719945481
  0.4991266365332550  0.4941574821773074  0.3322350961213232
  0.8357182586168648  0.4963163018362451  0.3362362825315444
  0.1636042251816576  0.8355362278695893  0.3325120579269409
  0.4998895360403495  0.8374171268096902  0.3335722112010799
  0.8379293988409984  0.8372062035730679  0.3354937926121480
  0.1699505864205548  0.1687359408197864  0.3351201559439616
  0.8335832099778102  0.1656422978177901  0.3342967062337578
  0.1673636587885454  0.4991191939749982  0.6669988073972704
  0.4995961560984625  0.4999232267183515  0.6676430395594437
  0.8352730898459200  0.5011845970047659  0.6680214117474179
  0.1693838803076204  0.8333846694259890  0.6671609264235769
  0.8335413686615425  0.8268771664282184  0.6633133218976894
  0.1666601595828752  0.1681683655447017  0.6668922312031427
  0.4973236898362714  0.1696898121631278  0.6674136474638672
  0.8349434165085654  0.1703292921281800  0.6671018244582427
  0.2505118414825986  0.4170469044721656  0.1663718670928418
  0.5814907762257988  0.4128583609874283  0.1653262685074282
  0.2502493611356655  0.7511483868490956  0.1661045083440058
  0.5787484044881310  0.7514199056036759  0.1645681629695872
  0.9185069067440494  0.7513094804615719  0.1687284848326343
  0.2466267644258551  0.0824624743675244  0.1637040147538613
  0.5844567383350139  0.0811923235034371  0.1654795205826076
  0.2504072541111313  0.4167206843426214  0.5007801014297542
  0.5822822176929137  0.4205751870595549  0.5018501499637580
  0.9203551703082695  0.4172130610515339  0.5014171056273540
  0.2478196348731174  0.7508755606412691  0.4999711981621644
  0.5832076589517641  0.7454265295729954  0.4979632937305709
  0.9202547634854952  0.7499590347874658  0.5011520592569738
  0.2492861124457377  0.0847875175304793  0.5001320700312561
  0.5807164093162669  0.0827633580337519  0.5013122424469003
  0.9189991017859498  0.0839179009045949  0.5005604989991213
  0.2503339780641127  0.4174231867988496  0.8335644551457548
  0.5813858597988144  0.4179261754757917  0.8338491900904259
  0.9180767177230678  0.4166564507493788  0.8325279282905740
  0.2519827607731102  0.7473933614282586  0.8330043289073785
  0.5787297133897056  0.7476534140732838  0.8327432074589964
  0.9163886066175451  0.7462526372172817  0.8319597500549989
  0.2517632867564430  0.0862721036289074  0.8336533637632257
  0.5822961171673882  0.0859710144778632  0.8349969361906702
  0.0021969921814957  0.3350037273208244  0.9996548691471645
  0.3338387186868630  0.3343549425688934  0.9997504322813242
  0.6602729677158621  0.3287328175737443  0.9955319609180151
  0.0017453581358922  0.6649510741482700  0.0000517572165677
  0.3320350983977889  0.6664189192769001  0.9993278451928873
  0.6655592205236758  0.6645356908725333  0.9981848631647949
  0.0016748586984363  0.0014167645006182  0.0012292141088537
  0.3362271275105115  0.9999387692916031  0.0026417568244810
  0.6612724821792781  0.0000064307567769  0.9974153902651892
  0.0032436698663219  0.3344563476138305  0.3388276216383090
  0.3294525559682739  0.3329506780979443  0.3323965185015183
  0.6698903015767215  0.3351009456442995  0.3312045144401594
  0.0050715118984783  0.6677284440954807  0.3386588408933946
  0.0015836642693046  0.0016834129132519  0.3352438720722191
  0.3316713518038483  0.0002439467560436  0.3326951914763256
  0.6660392827164969  0.9962379448879588  0.3316756859229528
  0.0056522939522310  0.3339365269448464  0.6694604985251473
  0.3322767546010752  0.3350347475197921  0.6680114067806358
  0.6644434498666030  0.3357048428221532  0.6687157284895591
  0.0003352122529279  0.6619687261377294  0.6639336383523471
  0.3292767118046882  0.6623645950127681  0.6651668644839006
  0.6686603012628964  0.6665731341816610  0.6684793110776752
  0.0017054181355718  0.0008909390047123  0.6614812173573412
  0.3310605928751613  0.0028395019101168  0.6674931751483228
  0.0818261808203289  0.5832243808887512  0.1643665291363519
  0.4142339768374583  0.5814562234639951  0.1624625451518398
  0.0895516614005487  0.9154222844592894  0.1695591167276120
  0.4133435022459153  0.9150806955329074  0.1645033492443559
  0.7466603980671067  0.9160915511470122  0.1681614215003648
  0.0873370787777645  0.2496382911583126  0.1664008206161043
  0.4160236179666086  0.2493594419341250  0.1643261533033638
  0.7464032743757372  0.2504709374222358  0.1674662083937548
  0.0852171555766574  0.5845770774395973  0.5004902599816106
  0.4181434184369834  0.5799093716778856  0.5016489586441679
  0.7516627874764765  0.5812171127345067  0.5022868291119167
  0.0855567864744984  0.9180507268520302  0.5015837065279669
  0.4097189693012382  0.9172251366376543  0.4966210307532748
  0.7506771802039580  0.9210055954718754  0.5002685776863629
  0.0848121029762368  0.2497443233828136  0.5005269718400314
  0.4168005048827439  0.2524545167983021  0.5035999795533783
  0.0837804469062888  0.5835125093115394  0.8333495810831835
  0.4170461504829390  0.5824940588991865  0.8344003018752417
  0.7459261664991175  0.5781975740409848  0.8282082895873373
  0.4142193643229533  0.9176866232798986  0.8349021021251488
  0.7504431324477139  0.9120477036295753  0.8340887661339451
  0.0863555822071618  0.2515982992904284  0.8322090997573071
  0.4158378325811896  0.2502903303462034  0.8324693299987587
  0.7487945673486962  0.2581587859210828  0.8360636135325450
  0.3333611005047104  0.6674283243988768  0.3338423934932990
  0.6676262348276651  0.6699111245989542  0.3339907285042614
  0.6669262088631243  0.9977824586466753  0.6626939522418951
  0.7514964741397137  0.5870083123170460  0.1659712422336170
  0.7520252038836404  0.2518200025525275  0.5023225186218099
  0.0853879203211676  0.9164628288474219  0.8337185676069439
  0.1241601343870329  0.4600033489525117  0.0840646059123316
  0.4569237399904154  0.4579103117087158  0.0831920288890515
  0.7841598265805274  0.4507546053365843  0.0707323892710647
  0.1235090606981046  0.7903832957530881  0.0827113706284663
  0.4530928231975295  0.7921933554776928  0.0810893326386903
  0.7867018500772289  0.7885301666744979  0.0892403886749378
  0.1227889101489055  0.1249215777836170  0.0805122173373931
  0.4578108318591134  0.1246219779694684  0.0842562544728551
  0.7807627539808237  0.1272425370903250  0.0786375012445220
  0.1240249311144552  0.4592031207055953  0.4184603098527191
  0.4530793533360367  0.4558819828792409  0.4154517445100581
  0.7922889078178557  0.4577191479554585  0.4197259498070594
  0.1236728415908317  0.7937765524254274  0.4175306590103744
  0.4647407262460064  0.8008733188152988  0.4225255072778396
  0.8002081234229337  0.8011604890352473  0.4229296486277008
  0.1235428006088739  0.1262035995684840  0.4163196302989292
  0.4530810801021872  0.1245092235599685  0.4216175456920510
  0.7911684329148585  0.1168699419851293  0.4127198933231497
  0.1248866073164052  0.4595411845010560  0.7513281711438466
  0.4553870264085660  0.4586823500550139  0.7504051660964990
  0.7902503555489702  0.4558357955706995  0.7483007731090225
  0.1267082621961464  0.7820329166952575  0.7444063663732408
  0.4491138326093278  0.7876660084076690  0.7540529669419840
  0.7909841355294844  0.7907460336788006  0.7500275291938792
  0.1235082533535916  0.1252830594128582  0.7494037877859157
  0.4553379910447646  0.1256208292527532  0.7500585108736431
  0.7901865712020211  0.1383318524887045  0.7519178730427711
  0.2925115899541666  0.6252552130206368  0.0825763321294701
  0.6164478129064648  0.6271657954416767  0.0777572716837867
  0.9589767166081273  0.6255698636200009  0.0827998769704550
  0.2917736390014127  0.9578236799971620  0.0825054824533140
  0.6271244522478838  0.9567035835750701  0.0818026240021155
  0.9704057549058334  0.9569178336405031  0.0851426262762445
  0.2957458199751244  0.2944950189863604  0.0839728517822351
  0.6251222381443853  0.2900989316941178  0.0818022690227238
  0.9631739220777149  0.2820967492148583  0.0767659598605945
  0.2935994959095538  0.6236891443675532  0.4243070247638698
  0.6245455085974072  0.6175655243615878  0.4191741461795715
  0.9608083289054150  0.6234056569951747  0.4168540103717717
  0.2895573431639420  0.9593165878041603  0.4143123560614512
  0.6270950876851202  0.9609942942216136  0.4175804303728015
  0.9645746027150111  0.9608762409666127  0.4192800781614352
  0.2959302083123063  0.2930748583987040  0.4186870483933589
  0.6260936366438941  0.3031503025614697  0.4160978358716036
  0.9607731943669364  0.2898445958224656  0.4182109933326288
  0.2945698239855119  0.6220357348619103  0.7504768817131406
  0.6251304311575367  0.6252719715596342  0.7497109764061207
  0.9620586191936482  0.6249177477728765  0.7494338237751776
  0.2939843230059651  0.9597764199135099  0.7507548198988090
  0.6309275316488439  0.9627725683863417  0.7596491085969532
  0.9545188574092975  0.9528470079676197  0.7369197846642948
  0.2931284583267413  0.2924890844310326  0.7504258292662058
  0.6242980046792326  0.2941148136639811  0.7509432468713442
  0.9627815575877747  0.2930175808769206  0.7500428908253269
  0.2080254226830718  0.3755202547882845  0.2499768127665476
  0.5416593463460515  0.3692074817266544  0.2486046008388385
  0.8748848996763883  0.3678058944980904  0.2551137488328052
  0.2003748802565539  0.7103738388184695  0.2450202892251312
  0.5321638469051777  0.7094390972784552  0.2446885195010609
  0.8863877066569898  0.7143724744966917  0.2583255381598235
  0.2094783092442114  0.0416803951892959  0.2502955845943191
  0.5428556134643898  0.0317981276701147  0.2446710024939662
  0.8724910883258303  0.0367603634161782  0.2538581195063330
  0.2083718559777950  0.3728544307289354  0.5835157658271370
  0.5415830475461405  0.3743536530018119  0.5842002568146540
  0.8864322219634460  0.3813972168592699  0.5906469910289118
  0.2090143369540627  0.7069992497135829  0.5835244099903889
  0.5438253328915863  0.6994745204976098  0.5799642289381453
  0.8769795678954466  0.7020944601499153  0.5815168008617775
  0.2079372721891417  0.0420489660694017  0.5837414625719077
  0.5302175176340427  0.0417500705292042  0.5794750062416654
  0.8753722879426462  0.0428654180384811  0.5836363132608255
  0.2098057992138749  0.3743788855430168  0.9170087543201362
  0.5389577635512097  0.3735465847023676  0.9156729569203819
  0.8773541551780255  0.3750608009455334  0.9167456121467907
  0.2080244495101269  0.7059347316179085  0.9160426848365049
  0.5407798795384622  0.7051923079726947  0.9173520380858733
  0.8752914442901485  0.6942344730468477  0.9096804128260558
  0.2181093074644664  0.0481082196449449  0.9222988069300513
  0.5377680717407358  0.0404924527981763  0.9155335421221551
  0.8722421754760319  0.0351175979485632  0.9206756706748109
  0.0492929152697172  0.5509102102899277  0.2550307846907316
  0.3791441538623204  0.5365654619194515  0.2454045660321427
  0.7099478908739059  0.5316666175686606  0.2498554794778514
  0.0408373237364543  0.8797867739430245  0.2498736847261753
  0.3737456179916450  0.8791346334976922  0.2501090576234617
  0.7075385050310814  0.8738130669770925  0.2504156449582666
  0.0511081085941782  0.2198287166955453  0.2562484181333460
  0.3651127575422919  0.2120692235741330  0.2429502059127486
  0.7084198263911361  0.2083761770643378  0.2507361247846305
  0.0447132570390494  0.5425180412808004  0.5823733203321666
  0.3750648249103961  0.5428964597040320  0.5845689614212759
  0.7098884599007960  0.5442738699693876  0.5859419737462446
  0.0450305637863622  0.8761024784497522  0.5836019917506832
  0.3665695530984863  0.8802981232118157  0.5788765827002180
  0.7112652916888678  0.8655518365860218  0.5758633910241286
  0.0425766962767682  0.2113316086280150  0.5836276412810264
  0.3726033801320625  0.2127939746335414  0.5847848152905826
  0.7034968395126313  0.2090289091885609  0.5884386464174796
  0.0427192922459980  0.5430347579313803  0.9161083541312749
  0.3735295826373530  0.5436326903807540  0.9164189696808265
  0.7066400561654049  0.5435519855206010  0.9144246336215005
  0.0384551012919090  0.8731725790487630  0.9206222471147640
  0.3739319574833289  0.8766034892574197  0.9174040948398385
  0.6991805426059940  0.8763137627651219  0.9124958568613408
  0.0510494113577948  0.2171727907676271  0.9202672316128755
  0.3757831781507406  0.2126156135829476  0.9168058983531111
  0.7074287217336135  0.2109191629571612  0.9150862488665297

  0.00000000E+00  0.00000000E+00  0.00000000E+00
  0.00000000E+00  0.00000000E+00  0.00000000E+00
  0.00000000E+00  0.00000000E+00  0.00000000E+00
  0.00000000E+00  0.00000000E+00  0.00000000E+00
  0.00000000E+00  0.00000000E+00  0.00000000E+00
  0.00000000E+00  0.00000000E+00  0.00000000E+00
  0.00000000E+00  0.00000000E+00  0.00000000E+00
  0.00000000E+00  0.00000000E+00  0.00000000E+00
  0.00000000E+00  0.00000000E+00  0.00000000E+00
  0.00000000E+00  0.00000000E+00  0.00000000E+00
  0.00000000E+00  0.00000000E+00  0.00000000E+00
  0.00000000E+00  0.00000000E+00  0.00000000E+00
  0.00000000E+00  0.00000000E+00  0.00000000E+00
  0.00000000E+00  0.00000000E+00  0.00000000E+00
  0.00000000E+00  0.00000000E+00  0.00000000E+00
  0.00000000E+00  0.00000000E+00  0.00000000E+00
  0.00000000E+00  0.00000000E+00  0.00000000E+00
  0.00000000E+00  0.00000000E+00  0.00000000E+00
  0.00000000E+00  0.00000000E+00  0.00000000E+00
  0.00000000E+00  0.00000000E+00  0.00000000E+00
  0.00000000E+00  0.00000000E+00  0.00000000E+00
  0.00000000E+00  0.00000000E+00  0.00000000E+00
  0.00000000E+00  0.00000000E+00  0.00000000E+00
  0.00000000E+00  0.00000000E+00  0.00000000E+00
  0.00000000E+00  0.00000000E+00  0.00000000E+00
  0.00000000E+00  0.00000000E+00  0.00000000E+00
  0.00000000E+00  0.00000000E+00  0.00000000E+00
  0.00000000E+00  0.00000000E+00  0.00000000E+00
  0.00000000E+00  0.00000000E+00  0.00000000E+00
  0.00000000E+00  0.00000000E+00  0.00000000E+00
  0.00000000E+00  0.00000000E+00  0.00000000E+00
  0.00000000E+00  0.00000000E+00  0.00000000E+00
  0.00000000E+00  0.00000000E+00  0.00000000E+00
  0.00000000E+00  0.00000000E+00  0.00000000E+00
  0.00000000E+00  0.00000000E+00  0.00000000E+00
  0.00000000E+00  0.00000000E+00  0.00000000E+00
  0.00000000E+00  0.00000000E+00  0.00000000E+00
  0.00000000E+00  0.00000000E+00  0.00000000E+00
  0.00000000E+00  0.00000000E+00  0.00000000E+00
  0.00000000E+00  0.00000000E+00  0.00000000E+00
  0.00000000E+00  0.00000000E+00  0.00000000E+00
  0.00000000E+00  0.00000000E+00  0.00000000E+00
  0.00000000E+00  0.00000000E+00  0.00000000E+00
  0.00000000E+00  0.00000000E+00  0.00000000E+00
  0.00000000E+00  0.00000000E+00  0.00000000E+00
  0.00000000E+00  0.00000000E+00  0.00000000E+00
  0.00000000E+00  0.00000000E+00  0.00000000E+00
  0.00000000E+00  0.00000000E+00  0.00000000E+00
  0.00000000E+00  0.00000000E+00  0.00000000E+00
  0.00000000E+00  0.00000000E+00  0.00000000E+00
  0.00000000E+00  0.00000000E+00  0.00000000E+00
  0.00000000E+00  0.00000000E+00  0.00000000E+00
  0.00000000E+00  0.00000000E+00  0.00000000E+00
  0.00000000E+00  0.00000000E+00  0.00000000E+00
  0.00000000E+00  0.00000000E+00  0.00000000E+00
  0.00000000E+00  0.00000000E+00  0.00000000E+00
  0.00000000E+00  0.00000000E+00  0.00000000E+00
  0.00000000E+00  0.00000000E+00  0.00000000E+00
  0.00000000E+00  0.00000000E+00  0.00000000E+00
  0.00000000E+00  0.00000000E+00  0.00000000E+00
  0.00000000E+00  0.00000000E+00  0.00000000E+00
  0.00000000E+00  0.00000000E+00  0.00000000E+00
  0.00000000E+00  0.00000000E+00  0.00000000E+00
  0.00000000E+00  0.00000000E+00  0.00000000E+00
  0.00000000E+00  0.00000000E+00  0.00000000E+00
  0.00000000E+00  0.00000000E+00  0.00000000E+00
  0.00000000E+00  0.00000000E+00  0.00000000E+00
  0.00000000E+00  0.00000000E+00  0.00000000E+00
  0.00000000E+00  0.00000000E+00  0.00000000E+00
  0.00000000E+00  0.00000000E+00  0.00000000E+00
  0.00000000E+00  0.00000000E+00  0.00000000E+00
  0.00000000E+00  0.00000000E+00  0.00000000E+00
  0.00000000E+00  0.00000000E+00  0.00000000E+00
  0.00000000E+00  0.00000000E+00  0.00000000E+00
  0.00000000E+00  0.00000000E+00  0.00000000E+00
  0.00000000E+00  0.00000000E+00  0.00000000E+00
  0.00000000E+00  0.00000000E+00  0.00000000E+00
  0.00000000E+00  0.00000000E+00  0.00000000E+00
  0.00000000E+00  0.00000000E+00  0.00000000E+00
  0.00000000E+00  0.00000000E+00  0.00000000E+00
  0.00000000E+00  0.00000000E+00  0.00000000E+00
  0.00000000E+00  0.00000000E+00  0.00000000E+00
  0.00000000E+00  0.00000000E+00  0.00000000E+00
  0.00000000E+00  0.00000000E+00  0.00000000E+00
  0.00000000E+00  0.00000000E+00  0.00000000E+00
  0.00000000E+00  0.00000000E+00  0.00000000E+00
  0.00000000E+00  0.00000000E+00  0.00000000E+00
  0.00000000E+00  0.00000000E+00  0.00000000E+00
  0.00000000E+00  0.00000000E+00  0.00000000E+00
  0.00000000E+00  0.00000000E+00  0.00000000E+00
  0.00000000E+00  0.00000000E+00  0.00000000E+00
  0.00000000E+00  0.00000000E+00  0.00000000E+00
  0.00000000E+00  0.00000000E+00  0.00000000E+00
  0.00000000E+00  0.00000000E+00  0.00000000E+00
  0.00000000E+00  0.00000000E+00  0.00000000E+00
  0.00000000E+00  0.00000000E+00  0.00000000E+00
  0.00000000E+00  0.00000000E+00  0.00000000E+00
  0.00000000E+00  0.00000000E+00  0.00000000E+00
  0.00000000E+00  0.00000000E+00  0.00000000E+00
  0.00000000E+00  0.00000000E+00  0.00000000E+00
  0.00000000E+00  0.00000000E+00  0.00000000E+00
  0.00000000E+00  0.00000000E+00  0.00000000E+00
  0.00000000E+00  0.00000000E+00  0.00000000E+00
  0.00000000E+00  0.00000000E+00  0.00000000E+00
  0.00000000E+00  0.00000000E+00  0.00000000E+00
  0.00000000E+00  0.00000000E+00  0.00000000E+00
  0.00000000E+00  0.00000000E+00  0.00000000E+00
  0.00000000E+00  0.00000000E+00  0.00000000E+00
  0.00000000E+00  0.00000000E+00  0.00000000E+00
  0.00000000E+00  0.00000000E+00  0.00000000E+00
  0.00000000E+00  0.00000000E+00  0.00000000E+00
  0.00000000E+00  0.00000000E+00  0.00000000E+00
  0.00000000E+00  0.00000000E+00  0.00000000E+00
  0.00000000E+00  0.00000000E+00  0.00000000E+00
  0.00000000E+00  0.00000000E+00  0.00000000E+00
  0.00000000E+00  0.00000000E+00  0.00000000E+00
  0.00000000E+00  0.00000000E+00  0.00000000E+00
  0.00000000E+00  0.00000000E+00  0.00000000E+00
  0.00000000E+00  0.00000000E+00  0.00000000E+00
  0.00000000E+00  0.00000000E+00  0.00000000E+00
  0.00000000E+00  0.00000000E+00  0.00000000E+00
  0.00000000E+00  0.00000000E+00  0.00000000E+00
  0.00000000E+00  0.00000000E+00  0.00000000E+00
  0.00000000E+00  0.00000000E+00  0.00000000E+00
  0.00000000E+00  0.00000000E+00  0.00000000E+00
  0.00000000E+00  0.00000000E+00  0.00000000E+00
  0.00000000E+00  0.00000000E+00  0.00000000E+00
  0.00000000E+00  0.00000000E+00  0.00000000E+00
  0.00000000E+00  0.00000000E+00  0.00000000E+00
  0.00000000E+00  0.00000000E+00  0.00000000E+00
  0.00000000E+00  0.00000000E+00  0.00000000E+00
  0.00000000E+00  0.00000000E+00  0.00000000E+00
  0.00000000E+00  0.00000000E+00  0.00000000E+00
  0.00000000E+00  0.00000000E+00  0.00000000E+00
  0.00000000E+00  0.00000000E+00  0.00000000E+00
  0.00000000E+00  0.00000000E+00  0.00000000E+00
  0.00000000E+00  0.00000000E+00  0.00000000E+00
  0.00000000E+00  0.00000000E+00  0.00000000E+00
  0.00000000E+00  0.00000000E+00  0.00000000E+00
  0.00000000E+00  0.00000000E+00  0.00000000E+00
  0.00000000E+00  0.00000000E+00  0.00000000E+00
  0.00000000E+00  0.00000000E+00  0.00000000E+00
  0.00000000E+00  0.00000000E+00  0.00000000E+00
  0.00000000E+00  0.00000000E+00  0.00000000E+00
  0.00000000E+00  0.00000000E+00  0.00000000E+00
  0.00000000E+00  0.00000000E+00  0.00000000E+00
  0.00000000E+00  0.00000000E+00  0.00000000E+00
  0.00000000E+00  0.00000000E+00  0.00000000E+00
  0.00000000E+00  0.00000000E+00  0.00000000E+00
  0.00000000E+00  0.00000000E+00  0.00000000E+00
  0.00000000E+00  0.00000000E+00  0.00000000E+00
  0.00000000E+00  0.00000000E+00  0.00000000E+00
  0.00000000E+00  0.00000000E+00  0.00000000E+00
  0.00000000E+00  0.00000000E+00  0.00000000E+00
  0.00000000E+00  0.00000000E+00  0.00000000E+00
  0.00000000E+00  0.00000000E+00  0.00000000E+00
  0.00000000E+00  0.00000000E+00  0.00000000E+00
  0.00000000E+00  0.00000000E+00  0.00000000E+00
  0.00000000E+00  0.00000000E+00  0.00000000E+00
  0.00000000E+00  0.00000000E+00  0.00000000E+00
  0.00000000E+00  0.00000000E+00  0.00000000E+00
  0.00000000E+00  0.00000000E+00  0.00000000E+00
  0.00000000E+00  0.00000000E+00  0.00000000E+00
  0.00000000E+00  0.00000000E+00  0.00000000E+00
  0.00000000E+00  0.00000000E+00  0.00000000E+00
  0.00000000E+00  0.00000000E+00  0.00000000E+00
  0.00000000E+00  0.00000000E+00  0.00000000E+00
  0.00000000E+00  0.00000000E+00  0.00000000E+00
  0.00000000E+00  0.00000000E+00  0.00000000E+00
  0.00000000E+00  0.00000000E+00  0.00000000E+00
  0.00000000E+00  0.00000000E+00  0.00000000E+00
  0.00000000E+00  0.00000000E+00  0.00000000E+00
  0.00000000E+00  0.00000000E+00  0.00000000E+00
  0.00000000E+00  0.00000000E+00  0.00000000E+00
  0.00000000E+00  0.00000000E+00  0.00000000E+00
  0.00000000E+00  0.00000000E+00  0.00000000E+00
  0.00000000E+00  0.00000000E+00  0.00000000E+00
  0.00000000E+00  0.00000000E+00  0.00000000E+00
  0.00000000E+00  0.00000000E+00  0.00000000E+00
  0.00000000E+00  0.00000000E+00  0.00000000E+00
  0.00000000E+00  0.00000000E+00  0.00000000E+00
  0.00000000E+00  0.00000000E+00  0.00000000E+00
  0.00000000E+00  0.00000000E+00  0.00000000E+00
  0.00000000E+00  0.00000000E+00  0.00000000E+00
  0.00000000E+00  0.00000000E+00  0.00000000E+00
  0.00000000E+00  0.00000000E+00  0.00000000E+00
  0.00000000E+00  0.00000000E+00  0.00000000E+00
  0.00000000E+00  0.00000000E+00  0.00000000E+00
  0.00000000E+00  0.00000000E+00  0.00000000E+00
  0.00000000E+00  0.00000000E+00  0.00000000E+00
  0.00000000E+00  0.00000000E+00  0.00000000E+00
  0.00000000E+00  0.00000000E+00  0.00000000E+00
  0.00000000E+00  0.00000000E+00  0.00000000E+00
  0.00000000E+00  0.00000000E+00  0.00000000E+00
  0.00000000E+00  0.00000000E+00  0.00000000E+00
  0.00000000E+00  0.00000000E+00  0.00000000E+00
  0.00000000E+00  0.00000000E+00  0.00000000E+00
  0.00000000E+00  0.00000000E+00  0.00000000E+00
  0.00000000E+00  0.00000000E+00  0.00000000E+00
  0.00000000E+00  0.00000000E+00  0.00000000E+00
  0.00000000E+00  0.00000000E+00  0.00000000E+00
  0.00000000E+00  0.00000000E+00  0.00000000E+00
  0.00000000E+00  0.00000000E+00  0.00000000E+00
  0.00000000E+00  0.00000000E+00  0.00000000E+00
  0.00000000E+00  0.00000000E+00  0.00000000E+00
  0.00000000E+00  0.00000000E+00  0.00000000E+00
  0.00000000E+00  0.00000000E+00  0.00000000E+00
  0.00000000E+00  0.00000000E+00  0.00000000E+00
  0.00000000E+00  0.00000000E+00  0.00000000E+00
  0.00000000E+00  0.00000000E+00  0.00000000E+00
  0.00000000E+00  0.00000000E+00  0.00000000E+00
  0.00000000E+00  0.00000000E+00  0.00000000E+00
  0.00000000E+00  0.00000000E+00  0.00000000E+00
  0.00000000E+00  0.00000000E+00  0.00000000E+00
  0.00000000E+00  0.00000000E+00  0.00000000E+00
  0.00000000E+00  0.00000000E+00  0.00000000E+00
