In36 Ga18 Cu42 Ag12 Se108               
   1.0000000000000000     
    16.0633479433435440   -0.0242947853698861   -7.2106065864212789
    -3.2228139970223220   15.7495582133542502   -7.2259667372998369
     0.0208105194253116    0.0421379167766818   21.5809223345037147
   In   Ga   Cu   Ag   Se
    36    18    42    12   108
Direct
  0.1658724842389745  0.5058525369107869  0.0000074181045449
  0.4991552069630742  0.8370200956973974  0.9981197128406336
  0.4991326139994925  0.1605844920437178  0.9998196854459920
  0.8344797977186786  0.1654205645985627  0.0037329765646419
  0.1627464678705479  0.5014848111399886  0.3324685789682107
  0.8385841880144653  0.4978354309579558  0.3319442474433032
  0.1676828527332006  0.8332886402561854  0.3356150928380188
  0.4977233371897825  0.8312315924819771  0.3350125964130939
  0.1623837950938807  0.1639480658137344  0.3332118992864110
  0.5028422518889784  0.1686518220450353  0.3325997252710380
  0.8371336873024191  0.1694202270543812  0.3354308276567366
  0.1662696700514488  0.5043737441924918  0.6669717139482430
  0.4990741758531883  0.5064165176490860  0.6710664661783383
  0.8363018560975988  0.5037474281992189  0.6669725255246490
  0.1683449070080911  0.8328099745434727  0.6695602868476911
  0.4998726059327439  0.8324717582644254  0.6673817561142670
  0.8367774824365526  0.8362031546955748  0.6691068749176736
  0.4954342597968164  0.1631537736309028  0.6678720636260991
  0.8324326714985304  0.1628280965916247  0.6633469590106742
  0.2492006066028765  0.4156688331600051  0.1644257541039167
  0.5843735725627681  0.4188419346401488  0.1681873801519060
  0.2482708818598098  0.7484057771480934  0.1639093473996951
  0.5871608427750488  0.7448726439113003  0.1651564816914188
  0.9131141713526461  0.7496836606039210  0.1649673403659335
  0.2498661791473822  0.0822710525779797  0.1639338716467691
  0.2470454056405842  0.4188106744752034  0.5003384986350241
  0.5840763738632120  0.4219113281075124  0.4994464289750269
  0.2486175086008018  0.7496164399360552  0.5011322532855971
  0.5813087977015599  0.7489631611058059  0.4987957917026051
  0.9185259792006093  0.7516175503186346  0.4977523528157803
  0.5843711385316013  0.0803744197524878  0.5002449801273272
  0.2538786447267825  0.4180143343928719  0.8333078153723577
  0.9146590263479268  0.4210366733374045  0.8362089236148336
  0.9168103543892343  0.7515337170465628  0.8361969644945049
  0.5825242564637776  0.0788462802363057  0.8332364024599812
  0.9178134337668666  0.0835747380365319  0.8355805402955525
  0.4993981056148797  0.5013935174281343  0.9986934892807255
  0.8344482641613524  0.4974088532346244  0.0000821904606809
  0.1665682924572209  0.8320492545852431  0.9948537678112430
  0.8292124639207330  0.8373763066536242  0.9989640401663351
  0.1669067468734156  0.1629274590124439  0.9986251418361931
  0.4971768572111230  0.5007125856456796  0.3299513355725168
  0.8351147177223766  0.8325291550007350  0.3333226860091330
  0.1699230989956533  0.1596161604051076  0.6636269828052193
  0.9156903540590591  0.4195649474725869  0.1652834771509504
  0.5853442134600897  0.0864763595948830  0.1657812184945087
  0.9107171577389437  0.0792538784147609  0.1651193004412193
  0.9188622487404743  0.4164455102346878  0.4980907922162601
  0.2467176300740590  0.0824495428895275  0.5026020268990123
  0.9222986257100700  0.0784320671738215  0.5014354483363803
  0.5802583880062713  0.4162070372647406  0.8357155382811712
  0.2516052537770150  0.7519809971690279  0.8354706387276423
  0.5833104967945459  0.7539450122722116  0.8350009310724644
  0.2525610093683710  0.0803771322318383  0.8310687637078615
  0.9995865878197066  0.3384410229324502  0.0025002325900587
  0.9944429261541643  0.6673960302450084  0.9981550552995131
  0.3315535814859487  0.6644580288410822  0.9957035427520466
  0.9984830475826456  0.9954364897475472  0.9958866396277486
  0.3290127107231484  0.0014901345248006  0.9951755639036506
  0.6698613704878937  0.9970399802278180  0.0032783908004603
  0.9944343805195075  0.3321708345836569  0.3312490655203248
  0.3380762759841005  0.3390491305405021  0.3325733748186366
  0.6624944805802571  0.3306602673708952  0.3292920807643540
  0.9970316511050612  0.6658115614975983  0.3301585707437908
  0.3316158450995204  0.6629829158107370  0.3290831347083341
  0.6679252647854241  0.6680820500822406  0.3314971710988530
  0.9997866362897341  0.0008111191484161  0.3375595269471532
  0.3291200200925957  0.0004497360854216  0.3387351102437890
  0.3337098477580014  0.3337414496106277  0.6703446391606818
  0.0059363890009436  0.6680609554665935  0.6692226432751056
  0.3365762438340241  0.6699991033264467  0.6726579075401418
  0.6645931591321528  0.6724645830893721  0.6739110050525809
  0.0036911487003479  0.9986945698865526  0.6662111333303855
  0.3282743162668709  0.9999438868251858  0.6671821060436969
  0.6690418478633546  0.9984978193135277  0.6669423039782956
  0.0759314687542982  0.5831347303422234  0.1636777543528893
  0.4189366781682011  0.5834064846738514  0.1664057771077054
  0.7531083896503645  0.5846671123658851  0.1696333370854717
  0.7536654971946390  0.9230750914718726  0.1673023790517618
  0.4209171733534518  0.2480386981351472  0.1688522410005149
  0.7527118787244902  0.2475328574242752  0.1689010077126198
  0.0833140515565063  0.5828530244672478  0.5013398274458538
  0.4145133663412679  0.5829187442206916  0.4979985884283096
  0.0817604887327406  0.9190066300159643  0.4981955115402883
  0.4146798005261587  0.9188911941582774  0.5027073242168214
  0.7578748291656439  0.9150812377992281  0.5012545778768853
  0.0854986573336660  0.2491071858884908  0.5020352795208964
  0.7538099512564926  0.2514220779158265  0.4985212109312727
  0.0880731813085873  0.5930932338908690  0.8384221397144600
  0.4161846209864493  0.5823779447427313  0.8321751235261843
  0.7486642246646653  0.5921879860042623  0.8403420583253265
  0.0896591830029365  0.9188470537679621  0.8368440053403319
  0.4162245192543921  0.9148273714016497  0.8338476834912143
  0.7476052920755833  0.9149649754056526  0.8363980048010191
  0.4119955484389450  0.2491908292939300  0.8299971356988394
  0.7516442374179917  0.2513661223749111  0.8351303528636294
  0.3350090813354853  0.3295910774549355  0.0018490510208835
  0.6649838622081035  0.3398366602355267  0.0005195898836021
  0.6675137409615459  0.6638812789404938  0.9950533137244832
  0.6763189038662745  0.9984497474743037  0.3346778854643020
  0.0045112992079268  0.3302687541691043  0.6609255316990073
  0.6675840709965044  0.3342049321930034  0.6728611561829396
  0.0756290257717183  0.9132896211419990  0.1576283167636063
  0.4158599851862448  0.9162942745624463  0.1656227780516204
  0.0788843359293736  0.2450312031611830  0.1651386408476725
  0.7502245864918677  0.5793858881269571  0.4946874998279398
  0.4077852456576707  0.2461831546571602  0.4962638887594082
  0.0821078308893490  0.2361381928077932  0.8300809077442679
  0.1150964827758472  0.4615873427756512  0.0833047021174949
  0.4568833057327240  0.4659001433718117  0.0816903723892040
  0.7967172127679163  0.4686604236947218  0.0890087506361326
  0.1181262958006002  0.7851016545346710  0.0693507281112673
  0.4531514929944436  0.7827961692919061  0.0775144440512676
  0.7875294033216207  0.8027429281481631  0.0819121814663148
  0.1165012910849299  0.1168151128242485  0.0719175246770050
  0.4530048622065976  0.1207504720590435  0.0875434627145921
  0.7856386989552817  0.1213670052628473  0.0884319227475885
  0.1102190602782684  0.4574651264502165  0.4147020753371748
  0.4513786286993096  0.4640935085765321  0.4116782144195597
  0.7910097119541390  0.4444784595493019  0.4113565273131243
  0.1126734308963151  0.7908464059726583  0.4169261192076448
  0.4431649373068325  0.7914252903838275  0.4179911581830922
  0.7842153604880906  0.7926355835210686  0.4107263479795762
  0.1204870549561861  0.1218244478127488  0.4224467308394537
  0.4513760152332722  0.1164473841778531  0.4107172587097949
  0.8029195410986674  0.1306898921424420  0.4294824869427671
  0.1227312572333332  0.4695733172038246  0.7570748629712298
  0.4535632426894480  0.4557820655878189  0.7546498013141019
  0.7876590885855563  0.4732999161281128  0.7570804245051690
  0.1235709729447123  0.7905166121943168  0.7570486767139855
  0.4555998115689306  0.7916408594992177  0.7555847349075364
  0.7826266617422064  0.7943041712937315  0.7520067029831168
  0.1294779817839355  0.1139587552797892  0.7431122668710302
  0.4460815645154668  0.1220385772557862  0.7521312592156590
  0.7820793182417347  0.1257064406343247  0.7502394284251608
  0.3050889242578023  0.6262952741999044  0.0832549060208763
  0.6302111663422920  0.6123122291272551  0.0807090382967957
  0.9588670457112443  0.6199283911898235  0.0767435514259986
  0.2883329377816040  0.9532266128144258  0.0708708006166390
  0.6334213700335098  0.9656197182838184  0.0894925910856443
  0.9485740385198156  0.9623903918656254  0.0753677210725314
  0.2941005066996567  0.2790444640482903  0.0847312216247218
  0.6330160616062912  0.2875913483112598  0.0881518131213213
  0.9586321487657585  0.3022691663895429  0.0836319367914626
  0.2996576708535272  0.6254538643963201  0.4151667565677997
  0.6212963737376711  0.6209656945917814  0.4050209070408286
  0.9714330332885339  0.6253726399564172  0.4165787288985570
  0.2982484887030736  0.9662800910554168  0.4251613817634947
  0.6355782172867919  0.9523890128166386  0.4209115660558993
  0.9593488438729594  0.9558190983301174  0.4156020612378484
  0.2897322297104026  0.2960140125591906  0.4072082998098168
  0.6374042592805864  0.2945330681776355  0.4180116002981578
  0.9710679540453171  0.2986871438878538  0.4231420522540006
  0.3002868426864183  0.6329817093311689  0.7564358299552012
  0.6326368387379091  0.6355554857358072  0.7591651482581696
  0.9711584240644626  0.6291579147521773  0.7521492336263336
  0.3014705954556831  0.9614421275479472  0.7545394392505571
  0.6364801375673323  0.9559396920462930  0.7496612772768003
  0.9737005291107863  0.9610966331560959  0.7524908094624934
  0.2923408206491018  0.2831104096287262  0.7442723947730983
  0.6264960004652593  0.2934900428876688  0.7610956282923098
  0.9598822070597777  0.2930091797318255  0.7503616647124218
  0.2123766739831083  0.3714422175300811  0.2531518639416532
  0.5382726852372528  0.3723511912504520  0.2534663647718602
  0.8763302410666327  0.3652952218569538  0.2412429007657479
  0.2043171200443581  0.6958672990456449  0.2471362995995108
  0.5418830733923556  0.6993533407560903  0.2500547364536274
  0.8727774029414306  0.7050932290429017  0.2539505580501498
  0.2128106310931557  0.0360485994060085  0.2524768743362671
  0.5489587631353814  0.0421995486512259  0.2458428131415573
  0.8794471698407591  0.0350856934228574  0.2494465371864436
  0.2096891334263518  0.3666796454455081  0.5864213096970090
  0.5382137038380392  0.3755192949630839  0.5827791266987106
  0.8726621504829950  0.3718999397749130  0.5742428477415231
  0.2098122192412220  0.6968121956319280  0.5860507131389525
  0.5408359094167992  0.6969505573051791  0.5833110115257298
  0.8848328982712701  0.7056320714287452  0.5877856613098160
  0.2075555670340421  0.0345807978683865  0.5815468717095342
  0.5425428744399952  0.0312901571949169  0.5855445826075254
  0.8816924390033023  0.0318621061183251  0.5806672299924287
  0.2058864538011775  0.3731647016917705  0.9154833308423562
  0.5290819526761155  0.3741661043204161  0.9113775835815190
  0.8734406492051008  0.3703809952139139  0.9211782929323959
  0.2122436847874241  0.7087113474832591  0.9175097065127886
  0.5360494767450987  0.7041283472954731  0.9069461821649867
  0.8710457443250306  0.7101024050840792  0.9241906418603349
  0.2090901409883870  0.0419923287237296  0.9141306252864254
  0.5443438948148369  0.0265117926261595  0.9184770801081683
  0.8731949916642137  0.0293173688385409  0.9164568342921555
  0.0332963522154088  0.5468851019156276  0.2447372997892856
  0.3797660635909921  0.5483219259690486  0.2497089035233557
  0.7120963999048371  0.5519615348597497  0.2520874855277455
  0.0393256065993413  0.8835134961323661  0.2544322995183563
  0.3703815938812198  0.8849385464130322  0.2564831358242046
  0.7205112144238939  0.8726932556076292  0.2458111376032406
  0.0273851976230546  0.2056879760012933  0.2489529785185240
  0.3751560614751668  0.2189107487616937  0.2505445202849756
  0.7041010188710146  0.2132011094281268  0.2472690771219703
  0.0343260649480683  0.5466430085819383  0.5786455556027903
  0.3731166069728289  0.5549026235321080  0.5840289289518523
  0.7068548256609546  0.5576750746373307  0.5914104195338510
  0.0454612303592086  0.8847399046374775  0.5831873352902406
  0.3732893581242394  0.8861807403684736  0.5860818759978059
  0.7103065710004799  0.8839768307946940  0.5820171008457606
  0.0479213939899736  0.1976032728468908  0.5790526024753646
  0.3635017134694891  0.2088339034869762  0.5843431263439740
  0.7101368742142213  0.2137570791709393  0.5776893671936847
  0.0401463332651772  0.5564784627551873  0.9161259339838566
  0.3828161441513771  0.5512764148993341  0.9202365022775112
  0.7107243083066948  0.5314537572274958  0.9113340536000791
  0.0480046890162242  0.8821981567277533  0.9191097882381243
  0.3669447381807842  0.8812469106328393  0.9122518638662314
  0.7056078166502502  0.8780101622119503  0.9172935070622472
  0.0461911006401934  0.2163245937997047  0.9300219749743306
  0.3728060245188445  0.2029659667779526  0.9075222337778470
  0.7100825533177897  0.2105946993268333  0.9138355050740827

  0.00000000E+00  0.00000000E+00  0.00000000E+00
  0.00000000E+00  0.00000000E+00  0.00000000E+00
  0.00000000E+00  0.00000000E+00  0.00000000E+00
  0.00000000E+00  0.00000000E+00  0.00000000E+00
  0.00000000E+00  0.00000000E+00  0.00000000E+00
  0.00000000E+00  0.00000000E+00  0.00000000E+00
  0.00000000E+00  0.00000000E+00  0.00000000E+00
  0.00000000E+00  0.00000000E+00  0.00000000E+00
  0.00000000E+00  0.00000000E+00  0.00000000E+00
  0.00000000E+00  0.00000000E+00  0.00000000E+00
  0.00000000E+00  0.00000000E+00  0.00000000E+00
  0.00000000E+00  0.00000000E+00  0.00000000E+00
  0.00000000E+00  0.00000000E+00  0.00000000E+00
  0.00000000E+00  0.00000000E+00  0.00000000E+00
  0.00000000E+00  0.00000000E+00  0.00000000E+00
  0.00000000E+00  0.00000000E+00  0.00000000E+00
  0.00000000E+00  0.00000000E+00  0.00000000E+00
  0.00000000E+00  0.00000000E+00  0.00000000E+00
  0.00000000E+00  0.00000000E+00  0.00000000E+00
  0.00000000E+00  0.00000000E+00  0.00000000E+00
  0.00000000E+00  0.00000000E+00  0.00000000E+00
  0.00000000E+00  0.00000000E+00  0.00000000E+00
  0.00000000E+00  0.00000000E+00  0.00000000E+00
  0.00000000E+00  0.00000000E+00  0.00000000E+00
  0.00000000E+00  0.00000000E+00  0.00000000E+00
  0.00000000E+00  0.00000000E+00  0.00000000E+00
  0.00000000E+00  0.00000000E+00  0.00000000E+00
  0.00000000E+00  0.00000000E+00  0.00000000E+00
  0.00000000E+00  0.00000000E+00  0.00000000E+00
  0.00000000E+00  0.00000000E+00  0.00000000E+00
  0.00000000E+00  0.00000000E+00  0.00000000E+00
  0.00000000E+00  0.00000000E+00  0.00000000E+00
  0.00000000E+00  0.00000000E+00  0.00000000E+00
  0.00000000E+00  0.00000000E+00  0.00000000E+00
  0.00000000E+00  0.00000000E+00  0.00000000E+00
  0.00000000E+00  0.00000000E+00  0.00000000E+00
  0.00000000E+00  0.00000000E+00  0.00000000E+00
  0.00000000E+00  0.00000000E+00  0.00000000E+00
  0.00000000E+00  0.00000000E+00  0.00000000E+00
  0.00000000E+00  0.00000000E+00  0.00000000E+00
  0.00000000E+00  0.00000000E+00  0.00000000E+00
  0.00000000E+00  0.00000000E+00  0.00000000E+00
  0.00000000E+00  0.00000000E+00  0.00000000E+00
  0.00000000E+00  0.00000000E+00  0.00000000E+00
  0.00000000E+00  0.00000000E+00  0.00000000E+00
  0.00000000E+00  0.00000000E+00  0.00000000E+00
  0.00000000E+00  0.00000000E+00  0.00000000E+00
  0.00000000E+00  0.00000000E+00  0.00000000E+00
  0.00000000E+00  0.00000000E+00  0.00000000E+00
  0.00000000E+00  0.00000000E+00  0.00000000E+00
  0.00000000E+00  0.00000000E+00  0.00000000E+00
  0.00000000E+00  0.00000000E+00  0.00000000E+00
  0.00000000E+00  0.00000000E+00  0.00000000E+00
  0.00000000E+00  0.00000000E+00  0.00000000E+00
  0.00000000E+00  0.00000000E+00  0.00000000E+00
  0.00000000E+00  0.00000000E+00  0.00000000E+00
  0.00000000E+00  0.00000000E+00  0.00000000E+00
  0.00000000E+00  0.00000000E+00  0.00000000E+00
  0.00000000E+00  0.00000000E+00  0.00000000E+00
  0.00000000E+00  0.00000000E+00  0.00000000E+00
  0.00000000E+00  0.00000000E+00  0.00000000E+00
  0.00000000E+00  0.00000000E+00  0.00000000E+00
  0.00000000E+00  0.00000000E+00  0.00000000E+00
  0.00000000E+00  0.00000000E+00  0.00000000E+00
  0.00000000E+00  0.00000000E+00  0.00000000E+00
  0.00000000E+00  0.00000000E+00  0.00000000E+00
  0.00000000E+00  0.00000000E+00  0.00000000E+00
  0.00000000E+00  0.00000000E+00  0.00000000E+00
  0.00000000E+00  0.00000000E+00  0.00000000E+00
  0.00000000E+00  0.00000000E+00  0.00000000E+00
  0.00000000E+00  0.00000000E+00  0.00000000E+00
  0.00000000E+00  0.00000000E+00  0.00000000E+00
  0.00000000E+00  0.00000000E+00  0.00000000E+00
  0.00000000E+00  0.00000000E+00  0.00000000E+00
  0.00000000E+00  0.00000000E+00  0.00000000E+00
  0.00000000E+00  0.00000000E+00  0.00000000E+00
  0.00000000E+00  0.00000000E+00  0.00000000E+00
  0.00000000E+00  0.00000000E+00  0.00000000E+00
  0.00000000E+00  0.00000000E+00  0.00000000E+00
  0.00000000E+00  0.00000000E+00  0.00000000E+00
  0.00000000E+00  0.00000000E+00  0.00000000E+00
  0.00000000E+00  0.00000000E+00  0.00000000E+00
  0.00000000E+00  0.00000000E+00  0.00000000E+00
  0.00000000E+00  0.00000000E+00  0.00000000E+00
  0.00000000E+00  0.00000000E+00  0.00000000E+00
  0.00000000E+00  0.00000000E+00  0.00000000E+00
  0.00000000E+00  0.00000000E+00  0.00000000E+00
  0.00000000E+00  0.00000000E+00  0.00000000E+00
  0.00000000E+00  0.00000000E+00  0.00000000E+00
  0.00000000E+00  0.00000000E+00  0.00000000E+00
  0.00000000E+00  0.00000000E+00  0.00000000E+00
  0.00000000E+00  0.00000000E+00  0.00000000E+00
  0.00000000E+00  0.00000000E+00  0.00000000E+00
  0.00000000E+00  0.00000000E+00  0.00000000E+00
  0.00000000E+00  0.00000000E+00  0.00000000E+00
  0.00000000E+00  0.00000000E+00  0.00000000E+00
  0.00000000E+00  0.00000000E+00  0.00000000E+00
  0.00000000E+00  0.00000000E+00  0.00000000E+00
  0.00000000E+00  0.00000000E+00  0.00000000E+00
  0.00000000E+00  0.00000000E+00  0.00000000E+00
  0.00000000E+00  0.00000000E+00  0.00000000E+00
  0.00000000E+00  0.00000000E+00  0.00000000E+00
  0.00000000E+00  0.00000000E+00  0.00000000E+00
  0.00000000E+00  0.00000000E+00  0.00000000E+00
  0.00000000E+00  0.00000000E+00  0.00000000E+00
  0.00000000E+00  0.00000000E+00  0.00000000E+00
  0.00000000E+00  0.00000000E+00  0.00000000E+00
  0.00000000E+00  0.00000000E+00  0.00000000E+00
  0.00000000E+00  0.00000000E+00  0.00000000E+00
  0.00000000E+00  0.00000000E+00  0.00000000E+00
  0.00000000E+00  0.00000000E+00  0.00000000E+00
  0.00000000E+00  0.00000000E+00  0.00000000E+00
  0.00000000E+00  0.00000000E+00  0.00000000E+00
  0.00000000E+00  0.00000000E+00  0.00000000E+00
  0.00000000E+00  0.00000000E+00  0.00000000E+00
  0.00000000E+00  0.00000000E+00  0.00000000E+00
  0.00000000E+00  0.00000000E+00  0.00000000E+00
  0.00000000E+00  0.00000000E+00  0.00000000E+00
  0.00000000E+00  0.00000000E+00  0.00000000E+00
  0.00000000E+00  0.00000000E+00  0.00000000E+00
  0.00000000E+00  0.00000000E+00  0.00000000E+00
  0.00000000E+00  0.00000000E+00  0.00000000E+00
  0.00000000E+00  0.00000000E+00  0.00000000E+00
  0.00000000E+00  0.00000000E+00  0.00000000E+00
  0.00000000E+00  0.00000000E+00  0.00000000E+00
  0.00000000E+00  0.00000000E+00  0.00000000E+00
  0.00000000E+00  0.00000000E+00  0.00000000E+00
  0.00000000E+00  0.00000000E+00  0.00000000E+00
  0.00000000E+00  0.00000000E+00  0.00000000E+00
  0.00000000E+00  0.00000000E+00  0.00000000E+00
  0.00000000E+00  0.00000000E+00  0.00000000E+00
  0.00000000E+00  0.00000000E+00  0.00000000E+00
  0.00000000E+00  0.00000000E+00  0.00000000E+00
  0.00000000E+00  0.00000000E+00  0.00000000E+00
  0.00000000E+00  0.00000000E+00  0.00000000E+00
  0.00000000E+00  0.00000000E+00  0.00000000E+00
  0.00000000E+00  0.00000000E+00  0.00000000E+00
  0.00000000E+00  0.00000000E+00  0.00000000E+00
  0.00000000E+00  0.00000000E+00  0.00000000E+00
  0.00000000E+00  0.00000000E+00  0.00000000E+00
  0.00000000E+00  0.00000000E+00  0.00000000E+00
  0.00000000E+00  0.00000000E+00  0.00000000E+00
  0.00000000E+00  0.00000000E+00  0.00000000E+00
  0.00000000E+00  0.00000000E+00  0.00000000E+00
  0.00000000E+00  0.00000000E+00  0.00000000E+00
  0.00000000E+00  0.00000000E+00  0.00000000E+00
  0.00000000E+00  0.00000000E+00  0.00000000E+00
  0.00000000E+00  0.00000000E+00  0.00000000E+00
  0.00000000E+00  0.00000000E+00  0.00000000E+00
  0.00000000E+00  0.00000000E+00  0.00000000E+00
  0.00000000E+00  0.00000000E+00  0.00000000E+00
  0.00000000E+00  0.00000000E+00  0.00000000E+00
  0.00000000E+00  0.00000000E+00  0.00000000E+00
  0.00000000E+00  0.00000000E+00  0.00000000E+00
  0.00000000E+00  0.00000000E+00  0.00000000E+00
  0.00000000E+00  0.00000000E+00  0.00000000E+00
  0.00000000E+00  0.00000000E+00  0.00000000E+00
  0.00000000E+00  0.00000000E+00  0.00000000E+00
  0.00000000E+00  0.00000000E+00  0.00000000E+00
  0.00000000E+00  0.00000000E+00  0.00000000E+00
  0.00000000E+00  0.00000000E+00  0.00000000E+00
  0.00000000E+00  0.00000000E+00  0.00000000E+00
  0.00000000E+00  0.00000000E+00  0.00000000E+00
  0.00000000E+00  0.00000000E+00  0.00000000E+00
  0.00000000E+00  0.00000000E+00  0.00000000E+00
  0.00000000E+00  0.00000000E+00  0.00000000E+00
  0.00000000E+00  0.00000000E+00  0.00000000E+00
  0.00000000E+00  0.00000000E+00  0.00000000E+00
  0.00000000E+00  0.00000000E+00  0.00000000E+00
  0.00000000E+00  0.00000000E+00  0.00000000E+00
  0.00000000E+00  0.00000000E+00  0.00000000E+00
  0.00000000E+00  0.00000000E+00  0.00000000E+00
  0.00000000E+00  0.00000000E+00  0.00000000E+00
  0.00000000E+00  0.00000000E+00  0.00000000E+00
  0.00000000E+00  0.00000000E+00  0.00000000E+00
  0.00000000E+00  0.00000000E+00  0.00000000E+00
  0.00000000E+00  0.00000000E+00  0.00000000E+00
  0.00000000E+00  0.00000000E+00  0.00000000E+00
  0.00000000E+00  0.00000000E+00  0.00000000E+00
  0.00000000E+00  0.00000000E+00  0.00000000E+00
  0.00000000E+00  0.00000000E+00  0.00000000E+00
  0.00000000E+00  0.00000000E+00  0.00000000E+00
  0.00000000E+00  0.00000000E+00  0.00000000E+00
  0.00000000E+00  0.00000000E+00  0.00000000E+00
  0.00000000E+00  0.00000000E+00  0.00000000E+00
  0.00000000E+00  0.00000000E+00  0.00000000E+00
  0.00000000E+00  0.00000000E+00  0.00000000E+00
  0.00000000E+00  0.00000000E+00  0.00000000E+00
  0.00000000E+00  0.00000000E+00  0.00000000E+00
  0.00000000E+00  0.00000000E+00  0.00000000E+00
  0.00000000E+00  0.00000000E+00  0.00000000E+00
  0.00000000E+00  0.00000000E+00  0.00000000E+00
  0.00000000E+00  0.00000000E+00  0.00000000E+00
  0.00000000E+00  0.00000000E+00  0.00000000E+00
  0.00000000E+00  0.00000000E+00  0.00000000E+00
  0.00000000E+00  0.00000000E+00  0.00000000E+00
  0.00000000E+00  0.00000000E+00  0.00000000E+00
  0.00000000E+00  0.00000000E+00  0.00000000E+00
  0.00000000E+00  0.00000000E+00  0.00000000E+00
  0.00000000E+00  0.00000000E+00  0.00000000E+00
  0.00000000E+00  0.00000000E+00  0.00000000E+00
  0.00000000E+00  0.00000000E+00  0.00000000E+00
  0.00000000E+00  0.00000000E+00  0.00000000E+00
  0.00000000E+00  0.00000000E+00  0.00000000E+00
  0.00000000E+00  0.00000000E+00  0.00000000E+00
  0.00000000E+00  0.00000000E+00  0.00000000E+00
  0.00000000E+00  0.00000000E+00  0.00000000E+00
  0.00000000E+00  0.00000000E+00  0.00000000E+00
  0.00000000E+00  0.00000000E+00  0.00000000E+00
  0.00000000E+00  0.00000000E+00  0.00000000E+00
  0.00000000E+00  0.00000000E+00  0.00000000E+00
  0.00000000E+00  0.00000000E+00  0.00000000E+00
  0.00000000E+00  0.00000000E+00  0.00000000E+00
  0.00000000E+00  0.00000000E+00  0.00000000E+00
  0.00000000E+00  0.00000000E+00  0.00000000E+00
  0.00000000E+00  0.00000000E+00  0.00000000E+00
