Ga54 Cu6 Ag48 Se108                     
   1.0000000000000000     
    16.2870532091048723   -0.0000629816967055   -7.6615051537964209
    -3.5986950656328078   15.8767052959857615   -7.6551712034042287
     0.0141030576575100    0.0184427978041987   21.1788828065965298
   Ga   Cu   Ag   Se
    54     6    48   108
Direct
  0.1676894516697232  0.4969484396939094  0.0012655814032030
  0.4994454517024067  0.5007421543185657  0.0008079352926131
  0.8345648271878545  0.5024808326561612  0.0021240738562724
  0.1678160790205396  0.8345103211057250  0.0010993629030338
  0.4990932551462564  0.8321933683348135  0.9995358975212270
  0.8328811748856921  0.8333050095793411  0.9994851622129133
  0.1704692445360010  0.1692420364395275  0.0012673844207285
  0.4986965845095028  0.1686387660616688  0.0020754162682763
  0.8344529502189744  0.1670322732672460  0.0014849023093433
  0.1672464572937713  0.5002376388216447  0.3340954910027563
  0.5034091212671825  0.4994920898309303  0.3330572419960589
  0.8302646465898249  0.5022675525972957  0.3344638827858617
  0.1641398315710276  0.8365692205236144  0.3336876381049052
  0.5059756703485903  0.8339565955856258  0.3336121340214646
  0.8292960772445426  0.8367901153760471  0.3323082914064344
  0.1639484948887855  0.1636017221835360  0.3321265207374253
  0.5056906144208995  0.1662167078184993  0.3337760094134268
  0.8304391898883239  0.1617069583528092  0.3332140914010679
  0.1644400192427540  0.4976634867792811  0.6657968034854775
  0.5001270013773293  0.4993681607163509  0.6658253882563940
  0.8335412471887409  0.4956566282401269  0.6658198452429787
  0.1637473391028621  0.8335664065883819  0.6646390968828086
  0.5003774816028326  0.8324166278896783  0.6649584823657051
  0.8341220453799352  0.8347182101335235  0.6670017235102677
  0.1623687146580721  0.1670082005358609  0.6660102516159512
  0.4996239974931527  0.1662847730359474  0.6645030348012071
  0.8368870976984013  0.1677615762395135  0.6661379703259698
  0.2555601790959301  0.4155875718783690  0.1702657322379935
  0.5808053316443420  0.4161515779687335  0.1673241000500170
  0.9169275974195727  0.4184515381633247  0.1682204703454957
  0.2511872864538844  0.7492979348967523  0.1671164193429675
  0.5841140621476058  0.7519636297311294  0.1684269379300432
  0.9155855893480620  0.7538165286413587  0.1681219470906683
  0.2539316338029280  0.0871291773857266  0.1671574270457654
  0.5821074470285765  0.0834709141366190  0.1674199404123797
  0.9167581391411019  0.0813099445234400  0.1683014627473938
  0.2490179787703681  0.4156486503104944  0.4991432255487425
  0.5877822921716103  0.4140753472892129  0.5006960247825205
  0.9123677857972510  0.4110966700026921  0.4980315058965274
  0.2490720384448437  0.7503959489112759  0.4991080650416606
  0.5857915073266184  0.7492016236831063  0.4980980325216677
  0.9125844484593699  0.7501520252249350  0.4980548583414546
  0.2462675930131013  0.0823490862601020  0.4991372804274832
  0.5884039747910563  0.0866252168106598  0.4981328227483530
  0.9125863646866463  0.0843665643616447  0.4979200445060101
  0.2470073619763724  0.4126018824360074  0.8327726918709999
  0.5835565765939918  0.4171449444000359  0.8334928531717551
  0.9208061586962586  0.4145517278364110  0.8357781974217389
  0.2485217744753214  0.7498946505038262  0.8324056485169251
  0.5826532534685356  0.7497387077718116  0.8324351997957962
  0.9170377497257292  0.7480354978377690  0.8325981825776054
  0.2474143290554025  0.0862449399246827  0.8335541329932141
  0.5827351953592554  0.0835315107845815  0.8338289953744678
  0.9202517386689308  0.0878992435485131  0.8334054579737824
  0.6674952747487737  0.6684213133826375  0.3333718798457497
  0.9975790042844395  0.9993793430332616  0.3330865446666209
  0.6689452439231047  0.0026159423513405  0.3346839076477437
  0.4186502060064683  0.2501178509577073  0.1681279781139864
  0.7507995637759635  0.2460564658732807  0.4976005126444818
  0.0843358080790324  0.2503374720594707  0.8344899141820008
  0.0011519252764032  0.3301092378999684  0.9999989042348076
  0.3295590364605161  0.3332295535422389  0.0007984804539376
  0.6672399536517020  0.3343694406946227  0.9998986846392270
  0.0010436768651232  0.6685914329082081  0.0024287891260997
  0.3318840854471361  0.6657704822549775  0.9999444415457148
  0.6658182458731687  0.6669141666376959  0.9996130398311820
  0.0007577692287271  0.0000365377742284  0.0005265710410782
  0.3379667694071316  0.0020777663176332  0.0012222779003821
  0.6656046001983569  0.9992939952983946  0.9980518823271183
  0.9965588449728813  0.3325512349970197  0.3329580375861667
  0.3377914895414733  0.3291303784411070  0.3342857699621575
  0.6635038465431435  0.3305217325795908  0.3312755170037391
  0.9956557240671202  0.6690658966134961  0.3321023328421120
  0.3339086762509424  0.6717348986024803  0.3344564301307145
  0.3353245068012001  0.9974346421757261  0.3324970296270493
  0.9955266188781025  0.3330884618901777  0.6669025348004780
  0.3337549758888514  0.3333268217632508  0.6667268019887231
  0.6678778543204871  0.3299134715988359  0.6654430677671357
  0.9989523606713675  0.6654183008473638  0.6652285524158188
  0.3322102730788501  0.6661913692668975  0.6656271840883505
  0.6671797191134061  0.6677297149705410  0.6667877061902274
  0.0036563608057349  0.0024085000469611  0.6683155795454496
  0.3331551691537697  0.9997105894767131  0.6656197257697585
  0.6670355921440105  0.0009224070347571  0.6674604356296285
  0.0849921760312853  0.5808378044854479  0.1666479099388951
  0.4207925887653303  0.5861839627944008  0.1709019802407710
  0.7470095379574744  0.5811999891776409  0.1701481768997155
  0.0857449846501197  0.9182767854433536  0.1708648149529708
  0.4189715051002949  0.9205598518133087  0.1681870674617940
  0.7484688685557330  0.9196230994176062  0.1683428724060221
  0.0853466369068485  0.2511382554776773  0.1682505340049687
  0.7499565827074761  0.2497033225634979  0.1657403236181381
  0.0811305001514597  0.5821215920708127  0.5006188452194280
  0.4171040505831769  0.5804037024497362  0.4978520573847334
  0.7472100693481920  0.5829806250516896  0.4989123808551881
  0.0768881860048580  0.9182356087715178  0.4957024422397964
  0.4194148755659697  0.9197099649289768  0.5007267730135254
  0.7476800031458311  0.9151757705305883  0.4960220997910483
  0.0841257306962930  0.2460943570654024  0.4966137695623232
  0.4169074129105041  0.2496662720171514  0.4991005003598019
  0.0835744785414008  0.5821116689716987  0.8350440828143277
  0.4131729388502237  0.5817789199120469  0.8329482009763680
  0.7507601601687384  0.5807890929639399  0.8317093547550911
  0.0834031190765216  0.9177136430294865  0.8340601630696725
  0.4130126798679541  0.9173767649054909  0.8303721204423837
  0.7537232487996732  0.9200409541039178  0.8345619220497511
  0.4162022544833377  0.2492236016597715  0.8321910045203254
  0.7507513109158239  0.2508173418905812  0.8341323005011105
  0.1373397108211947  0.4550825481491643  0.0856811225401657
  0.4652347539794874  0.4577376196439360  0.0829267893078267
  0.8008257891579120  0.4606659941725653  0.0853216284471756
  0.1357792257495802  0.7932842297700873  0.0852883488175777
  0.4660967328423240  0.7910368057095880  0.0834708266994753
  0.7986867732669438  0.7934666667133143  0.0832486628533360
  0.1351245844941005  0.1262763055275471  0.0830447702112096
  0.4660793500966562  0.1338411863610816  0.0904727845463640
  0.8010291608160571  0.1234986789721546  0.0839820450507318
  0.1325509205891819  0.4576607693407837  0.4162838064528458
  0.4723335997649016  0.4568705044759369  0.4171759482382669
  0.7980757214289085  0.4564763895698647  0.4160385627638377
  0.1321756181598914  0.7926346580070671  0.4162752245839840
  0.4710664499424482  0.7947526855653564  0.4172998618522996
  0.7924323479053115  0.7853376915992243  0.4100539447004223
  0.1246312588626850  0.1144866632250938  0.4094544124728685
  0.4683157415065793  0.1253055345745082  0.4152467372252389
  0.7893886435199349  0.1241485922662378  0.4161035123505599
  0.1320555810360347  0.4562903226984076  0.7496770302754570
  0.4673533718809750  0.4588760362061421  0.7500781533304206
  0.8035460457741124  0.4548163595258785  0.7510106298777757
  0.1321611890681638  0.7916153457768047  0.7487527680754766
  0.4665797692729825  0.7917331180538412  0.7486769913616413
  0.8018639960825098  0.7922592782861173  0.7504046253366781
  0.1306985540373660  0.1344746883786243  0.7556630864004887
  0.4674334098904538  0.1246674701267168  0.7485780606091481
  0.8014487596777045  0.1266340976258604  0.7489389696866837
  0.2839235494448218  0.6229073883192058  0.0844761866065653
  0.6163186492765718  0.6261849452965080  0.0842038194429691
  0.9509648688153192  0.6281422116971953  0.0869372938526425
  0.2843536757965808  0.9598023147951551  0.0834338193616162
  0.6136107834256421  0.9588838317803692  0.0816681134728583
  0.9503156461890043  0.9576774546765208  0.0838218483045381
  0.2935994385378535  0.2895576103733433  0.0912598848985766
  0.6160537639652404  0.2932231112048811  0.0838412808605682
  0.9500440742006191  0.2927552947577396  0.0853667617648810
  0.2833213043257246  0.6256168033304803  0.4166110273057981
  0.6195804869013202  0.6269640619309982  0.4100988298578656
  0.9480008843021679  0.6255731159874216  0.4168250719390798
  0.2826764509615316  0.9591818924007072  0.4171328201538103
  0.6202777599880278  0.9624008606333803  0.4106963102757035
  0.9466827724369580  0.9623818871063747  0.4102244343781436
  0.2805441836011440  0.2890923595486683  0.4157267795910045
  0.6267018552267416  0.2881829147545574  0.4223672522260742
  0.9465637312158677  0.2872332996446900  0.4153951782763272
  0.2801213887430549  0.6237820753551588  0.7482914720976055
  0.6163705889453581  0.6245810595985404  0.7496046429886363
  0.9495415041832231  0.6219174030281138  0.7488853506700011
  0.2784441623069966  0.9603819404282419  0.7481390222759714
  0.6163535244736167  0.9585441856835075  0.7504297619236340
  0.9504406623154580  0.9600018220486675  0.7502175946046563
  0.2809107070325538  0.2900640084518997  0.7483949198139328
  0.6159676577809776  0.2915753056706762  0.7496234763488445
  0.9593553986278351  0.2888334665936441  0.7568512463540102
  0.2119515072144935  0.3840236499883574  0.2534411401493983
  0.5342651578286635  0.3754542228482407  0.2450140026112280
  0.8724957296288807  0.3863646237793361  0.2505619546335609
  0.2059001180969204  0.7195367402761335  0.2499998520805988
  0.5513440835566144  0.7153405936052621  0.2553585596704195
  0.8696128217825745  0.7192954112408216  0.2484398762484261
  0.2120144948711342  0.0525758211517058  0.2503003741638210
  0.5511834367046617  0.0477572028365785  0.2553584394629169
  0.8815623424280972  0.0470891596881984  0.2557521271466001
  0.2071433810295886  0.3821545936708191  0.5821856164602295
  0.5429517891844995  0.3828773012633206  0.5834131577248840
  0.8655841242441085  0.3728637292395121  0.5768970365023804
  0.2066646809845736  0.7173826623362132  0.5822712336981866
  0.5420025245425961  0.7159356435138378  0.5805615379709650
  0.8739039117981093  0.7172958283200686  0.5829239993669475
  0.2055459251133982  0.0503301758293446  0.5837446283899439
  0.5456623269886975  0.0534644966804123  0.5817422645957464
  0.8753079865779796  0.0484965555632755  0.5819000741598970
  0.2003328959309343  0.3752042653969880  0.9123237776649944
  0.5410630631239073  0.3844771549259249  0.9166267686888716
  0.8767292461073097  0.3848748360244727  0.9196324868013832
  0.2078296536015927  0.7174223846845180  0.9166413497457953
  0.5398785052777129  0.7160084872460715  0.9150845639029441
  0.8749059091217362  0.7163997401072351  0.9164428203682391
  0.2096421581599017  0.0509368817209008  0.9174664566824973
  0.5395161560489186  0.0515396574460638  0.9172561104980730
  0.8790755944024724  0.0545492451144796  0.9175138682996362
  0.0420211020334023  0.5344646996274847  0.2519093849335050
  0.3774422576313015  0.5349838428308900  0.2536540321953993
  0.7023551055218107  0.5390805746148288  0.2565429530154972
  0.0378016254183038  0.8754155271853392  0.2559071959062038
  0.3782314998822329  0.8636628217101006  0.2491971294070296
  0.7039095810494871  0.8759317989660502  0.2546667405789051
  0.0405120218344592  0.1988058650878415  0.2497199234561265
  0.3833278038254306  0.2013373558391720  0.2463908423962025
  0.7089607406685730  0.1970400210368126  0.2485008863690723
  0.0375748945721384  0.5282000510986080  0.5819184996770304
  0.3744926706756075  0.5317156472164584  0.5821418972107821
  0.7100905534465838  0.5325864944768739  0.5849205218948441
  0.0383635197287049  0.8662326726494243  0.5804167864068361
  0.3752751985176701  0.8660852111900113  0.5819448419081965
  0.7091732561854158  0.8673951778204767  0.5831085474111362
  0.0384011091035390  0.2002547577077820  0.5813468766286505
  0.3726808559017272  0.1981111557108335  0.5812672634262341
  0.7151473706157532  0.2033847020316628  0.5791053039283014
  0.0435526677329179  0.5331116831088494  0.9203075719996434
  0.3718371056383134  0.5300700149194313  0.9163569215570959
  0.7089498205577627  0.5332621088213685  0.9169648756204651
  0.0417790391128321  0.8653568491352175  0.9166275281750416
  0.3744869440415073  0.8655115687577819  0.9154249287475764
  0.7082782040249072  0.8658919249600174  0.9150607604309471
  0.0480960115067219  0.2037363030265738  0.9134228248665792
  0.3742176382448505  0.2008397479425454  0.9169168948913580
  0.7087708165948499  0.1991611918957901  0.9174210046754183

  0.00000000E+00  0.00000000E+00  0.00000000E+00
  0.00000000E+00  0.00000000E+00  0.00000000E+00
  0.00000000E+00  0.00000000E+00  0.00000000E+00
  0.00000000E+00  0.00000000E+00  0.00000000E+00
  0.00000000E+00  0.00000000E+00  0.00000000E+00
  0.00000000E+00  0.00000000E+00  0.00000000E+00
  0.00000000E+00  0.00000000E+00  0.00000000E+00
  0.00000000E+00  0.00000000E+00  0.00000000E+00
  0.00000000E+00  0.00000000E+00  0.00000000E+00
  0.00000000E+00  0.00000000E+00  0.00000000E+00
  0.00000000E+00  0.00000000E+00  0.00000000E+00
  0.00000000E+00  0.00000000E+00  0.00000000E+00
  0.00000000E+00  0.00000000E+00  0.00000000E+00
  0.00000000E+00  0.00000000E+00  0.00000000E+00
  0.00000000E+00  0.00000000E+00  0.00000000E+00
  0.00000000E+00  0.00000000E+00  0.00000000E+00
  0.00000000E+00  0.00000000E+00  0.00000000E+00
  0.00000000E+00  0.00000000E+00  0.00000000E+00
  0.00000000E+00  0.00000000E+00  0.00000000E+00
  0.00000000E+00  0.00000000E+00  0.00000000E+00
  0.00000000E+00  0.00000000E+00  0.00000000E+00
  0.00000000E+00  0.00000000E+00  0.00000000E+00
  0.00000000E+00  0.00000000E+00  0.00000000E+00
  0.00000000E+00  0.00000000E+00  0.00000000E+00
  0.00000000E+00  0.00000000E+00  0.00000000E+00
  0.00000000E+00  0.00000000E+00  0.00000000E+00
  0.00000000E+00  0.00000000E+00  0.00000000E+00
  0.00000000E+00  0.00000000E+00  0.00000000E+00
  0.00000000E+00  0.00000000E+00  0.00000000E+00
  0.00000000E+00  0.00000000E+00  0.00000000E+00
  0.00000000E+00  0.00000000E+00  0.00000000E+00
  0.00000000E+00  0.00000000E+00  0.00000000E+00
  0.00000000E+00  0.00000000E+00  0.00000000E+00
  0.00000000E+00  0.00000000E+00  0.00000000E+00
  0.00000000E+00  0.00000000E+00  0.00000000E+00
  0.00000000E+00  0.00000000E+00  0.00000000E+00
  0.00000000E+00  0.00000000E+00  0.00000000E+00
  0.00000000E+00  0.00000000E+00  0.00000000E+00
  0.00000000E+00  0.00000000E+00  0.00000000E+00
  0.00000000E+00  0.00000000E+00  0.00000000E+00
  0.00000000E+00  0.00000000E+00  0.00000000E+00
  0.00000000E+00  0.00000000E+00  0.00000000E+00
  0.00000000E+00  0.00000000E+00  0.00000000E+00
  0.00000000E+00  0.00000000E+00  0.00000000E+00
  0.00000000E+00  0.00000000E+00  0.00000000E+00
  0.00000000E+00  0.00000000E+00  0.00000000E+00
  0.00000000E+00  0.00000000E+00  0.00000000E+00
  0.00000000E+00  0.00000000E+00  0.00000000E+00
  0.00000000E+00  0.00000000E+00  0.00000000E+00
  0.00000000E+00  0.00000000E+00  0.00000000E+00
  0.00000000E+00  0.00000000E+00  0.00000000E+00
  0.00000000E+00  0.00000000E+00  0.00000000E+00
  0.00000000E+00  0.00000000E+00  0.00000000E+00
  0.00000000E+00  0.00000000E+00  0.00000000E+00
  0.00000000E+00  0.00000000E+00  0.00000000E+00
  0.00000000E+00  0.00000000E+00  0.00000000E+00
  0.00000000E+00  0.00000000E+00  0.00000000E+00
  0.00000000E+00  0.00000000E+00  0.00000000E+00
  0.00000000E+00  0.00000000E+00  0.00000000E+00
  0.00000000E+00  0.00000000E+00  0.00000000E+00
  0.00000000E+00  0.00000000E+00  0.00000000E+00
  0.00000000E+00  0.00000000E+00  0.00000000E+00
  0.00000000E+00  0.00000000E+00  0.00000000E+00
  0.00000000E+00  0.00000000E+00  0.00000000E+00
  0.00000000E+00  0.00000000E+00  0.00000000E+00
  0.00000000E+00  0.00000000E+00  0.00000000E+00
  0.00000000E+00  0.00000000E+00  0.00000000E+00
  0.00000000E+00  0.00000000E+00  0.00000000E+00
  0.00000000E+00  0.00000000E+00  0.00000000E+00
  0.00000000E+00  0.00000000E+00  0.00000000E+00
  0.00000000E+00  0.00000000E+00  0.00000000E+00
  0.00000000E+00  0.00000000E+00  0.00000000E+00
  0.00000000E+00  0.00000000E+00  0.00000000E+00
  0.00000000E+00  0.00000000E+00  0.00000000E+00
  0.00000000E+00  0.00000000E+00  0.00000000E+00
  0.00000000E+00  0.00000000E+00  0.00000000E+00
  0.00000000E+00  0.00000000E+00  0.00000000E+00
  0.00000000E+00  0.00000000E+00  0.00000000E+00
  0.00000000E+00  0.00000000E+00  0.00000000E+00
  0.00000000E+00  0.00000000E+00  0.00000000E+00
  0.00000000E+00  0.00000000E+00  0.00000000E+00
  0.00000000E+00  0.00000000E+00  0.00000000E+00
  0.00000000E+00  0.00000000E+00  0.00000000E+00
  0.00000000E+00  0.00000000E+00  0.00000000E+00
  0.00000000E+00  0.00000000E+00  0.00000000E+00
  0.00000000E+00  0.00000000E+00  0.00000000E+00
  0.00000000E+00  0.00000000E+00  0.00000000E+00
  0.00000000E+00  0.00000000E+00  0.00000000E+00
  0.00000000E+00  0.00000000E+00  0.00000000E+00
  0.00000000E+00  0.00000000E+00  0.00000000E+00
  0.00000000E+00  0.00000000E+00  0.00000000E+00
  0.00000000E+00  0.00000000E+00  0.00000000E+00
  0.00000000E+00  0.00000000E+00  0.00000000E+00
  0.00000000E+00  0.00000000E+00  0.00000000E+00
  0.00000000E+00  0.00000000E+00  0.00000000E+00
  0.00000000E+00  0.00000000E+00  0.00000000E+00
  0.00000000E+00  0.00000000E+00  0.00000000E+00
  0.00000000E+00  0.00000000E+00  0.00000000E+00
  0.00000000E+00  0.00000000E+00  0.00000000E+00
  0.00000000E+00  0.00000000E+00  0.00000000E+00
  0.00000000E+00  0.00000000E+00  0.00000000E+00
  0.00000000E+00  0.00000000E+00  0.00000000E+00
  0.00000000E+00  0.00000000E+00  0.00000000E+00
  0.00000000E+00  0.00000000E+00  0.00000000E+00
  0.00000000E+00  0.00000000E+00  0.00000000E+00
  0.00000000E+00  0.00000000E+00  0.00000000E+00
  0.00000000E+00  0.00000000E+00  0.00000000E+00
  0.00000000E+00  0.00000000E+00  0.00000000E+00
  0.00000000E+00  0.00000000E+00  0.00000000E+00
  0.00000000E+00  0.00000000E+00  0.00000000E+00
  0.00000000E+00  0.00000000E+00  0.00000000E+00
  0.00000000E+00  0.00000000E+00  0.00000000E+00
  0.00000000E+00  0.00000000E+00  0.00000000E+00
  0.00000000E+00  0.00000000E+00  0.00000000E+00
  0.00000000E+00  0.00000000E+00  0.00000000E+00
  0.00000000E+00  0.00000000E+00  0.00000000E+00
  0.00000000E+00  0.00000000E+00  0.00000000E+00
  0.00000000E+00  0.00000000E+00  0.00000000E+00
  0.00000000E+00  0.00000000E+00  0.00000000E+00
  0.00000000E+00  0.00000000E+00  0.00000000E+00
  0.00000000E+00  0.00000000E+00  0.00000000E+00
  0.00000000E+00  0.00000000E+00  0.00000000E+00
  0.00000000E+00  0.00000000E+00  0.00000000E+00
  0.00000000E+00  0.00000000E+00  0.00000000E+00
  0.00000000E+00  0.00000000E+00  0.00000000E+00
  0.00000000E+00  0.00000000E+00  0.00000000E+00
  0.00000000E+00  0.00000000E+00  0.00000000E+00
  0.00000000E+00  0.00000000E+00  0.00000000E+00
  0.00000000E+00  0.00000000E+00  0.00000000E+00
  0.00000000E+00  0.00000000E+00  0.00000000E+00
  0.00000000E+00  0.00000000E+00  0.00000000E+00
  0.00000000E+00  0.00000000E+00  0.00000000E+00
  0.00000000E+00  0.00000000E+00  0.00000000E+00
  0.00000000E+00  0.00000000E+00  0.00000000E+00
  0.00000000E+00  0.00000000E+00  0.00000000E+00
  0.00000000E+00  0.00000000E+00  0.00000000E+00
  0.00000000E+00  0.00000000E+00  0.00000000E+00
  0.00000000E+00  0.00000000E+00  0.00000000E+00
  0.00000000E+00  0.00000000E+00  0.00000000E+00
  0.00000000E+00  0.00000000E+00  0.00000000E+00
  0.00000000E+00  0.00000000E+00  0.00000000E+00
  0.00000000E+00  0.00000000E+00  0.00000000E+00
  0.00000000E+00  0.00000000E+00  0.00000000E+00
  0.00000000E+00  0.00000000E+00  0.00000000E+00
  0.00000000E+00  0.00000000E+00  0.00000000E+00
  0.00000000E+00  0.00000000E+00  0.00000000E+00
  0.00000000E+00  0.00000000E+00  0.00000000E+00
  0.00000000E+00  0.00000000E+00  0.00000000E+00
  0.00000000E+00  0.00000000E+00  0.00000000E+00
  0.00000000E+00  0.00000000E+00  0.00000000E+00
  0.00000000E+00  0.00000000E+00  0.00000000E+00
  0.00000000E+00  0.00000000E+00  0.00000000E+00
  0.00000000E+00  0.00000000E+00  0.00000000E+00
  0.00000000E+00  0.00000000E+00  0.00000000E+00
  0.00000000E+00  0.00000000E+00  0.00000000E+00
  0.00000000E+00  0.00000000E+00  0.00000000E+00
  0.00000000E+00  0.00000000E+00  0.00000000E+00
  0.00000000E+00  0.00000000E+00  0.00000000E+00
  0.00000000E+00  0.00000000E+00  0.00000000E+00
  0.00000000E+00  0.00000000E+00  0.00000000E+00
  0.00000000E+00  0.00000000E+00  0.00000000E+00
  0.00000000E+00  0.00000000E+00  0.00000000E+00
  0.00000000E+00  0.00000000E+00  0.00000000E+00
  0.00000000E+00  0.00000000E+00  0.00000000E+00
  0.00000000E+00  0.00000000E+00  0.00000000E+00
  0.00000000E+00  0.00000000E+00  0.00000000E+00
  0.00000000E+00  0.00000000E+00  0.00000000E+00
  0.00000000E+00  0.00000000E+00  0.00000000E+00
  0.00000000E+00  0.00000000E+00  0.00000000E+00
  0.00000000E+00  0.00000000E+00  0.00000000E+00
  0.00000000E+00  0.00000000E+00  0.00000000E+00
  0.00000000E+00  0.00000000E+00  0.00000000E+00
  0.00000000E+00  0.00000000E+00  0.00000000E+00
  0.00000000E+00  0.00000000E+00  0.00000000E+00
  0.00000000E+00  0.00000000E+00  0.00000000E+00
  0.00000000E+00  0.00000000E+00  0.00000000E+00
  0.00000000E+00  0.00000000E+00  0.00000000E+00
  0.00000000E+00  0.00000000E+00  0.00000000E+00
  0.00000000E+00  0.00000000E+00  0.00000000E+00
  0.00000000E+00  0.00000000E+00  0.00000000E+00
  0.00000000E+00  0.00000000E+00  0.00000000E+00
  0.00000000E+00  0.00000000E+00  0.00000000E+00
  0.00000000E+00  0.00000000E+00  0.00000000E+00
  0.00000000E+00  0.00000000E+00  0.00000000E+00
  0.00000000E+00  0.00000000E+00  0.00000000E+00
  0.00000000E+00  0.00000000E+00  0.00000000E+00
  0.00000000E+00  0.00000000E+00  0.00000000E+00
  0.00000000E+00  0.00000000E+00  0.00000000E+00
  0.00000000E+00  0.00000000E+00  0.00000000E+00
  0.00000000E+00  0.00000000E+00  0.00000000E+00
  0.00000000E+00  0.00000000E+00  0.00000000E+00
  0.00000000E+00  0.00000000E+00  0.00000000E+00
  0.00000000E+00  0.00000000E+00  0.00000000E+00
  0.00000000E+00  0.00000000E+00  0.00000000E+00
  0.00000000E+00  0.00000000E+00  0.00000000E+00
  0.00000000E+00  0.00000000E+00  0.00000000E+00
  0.00000000E+00  0.00000000E+00  0.00000000E+00
  0.00000000E+00  0.00000000E+00  0.00000000E+00
  0.00000000E+00  0.00000000E+00  0.00000000E+00
  0.00000000E+00  0.00000000E+00  0.00000000E+00
  0.00000000E+00  0.00000000E+00  0.00000000E+00
  0.00000000E+00  0.00000000E+00  0.00000000E+00
  0.00000000E+00  0.00000000E+00  0.00000000E+00
  0.00000000E+00  0.00000000E+00  0.00000000E+00
  0.00000000E+00  0.00000000E+00  0.00000000E+00
  0.00000000E+00  0.00000000E+00  0.00000000E+00
  0.00000000E+00  0.00000000E+00  0.00000000E+00
  0.00000000E+00  0.00000000E+00  0.00000000E+00
  0.00000000E+00  0.00000000E+00  0.00000000E+00
  0.00000000E+00  0.00000000E+00  0.00000000E+00
  0.00000000E+00  0.00000000E+00  0.00000000E+00
  0.00000000E+00  0.00000000E+00  0.00000000E+00
  0.00000000E+00  0.00000000E+00  0.00000000E+00
  0.00000000E+00  0.00000000E+00  0.00000000E+00
  0.00000000E+00  0.00000000E+00  0.00000000E+00
  0.00000000E+00  0.00000000E+00  0.00000000E+00
