In6 Ga48 Cu12 Ag42 Se108                
   1.0000000000000000     
    16.2404895062258561   -0.0002869438856626   -7.5520119847403020
    -3.5060004350486600   15.8446201996629235   -7.5428106919661069
     0.0113290747031745    0.0140481325869987   21.2794609255540337
   In   Ga   Cu   Ag   Se
     6    48    12    42   108
Direct
  0.5022880626003001  0.5052303259332973  0.0026698075851783
  0.8341007517127679  0.1671578793924695  0.0004545644732019
  0.4936488258533913  0.4971161282127667  0.6666273217524648
  0.2559421182726567  0.0839729543200392  0.1685812095359509
  0.5844999635659605  0.4104568746669912  0.4968650714422864
  0.5836811914489033  0.0835888563559593  0.4999516391327887
  0.1673299304718867  0.5015159332752148  0.0013552991458425
  0.8330739074528566  0.5014314889796623  0.0018939891887797
  0.1723080395604768  0.8301120626326934  0.0006747743207569
  0.4969114352766795  0.8284072792063668  0.9999303333986092
  0.8342451838665568  0.8324943967438116  0.0009612607866316
  0.1647314424152384  0.1700554436077937  0.9994251943964869
  0.5006092928311929  0.1677890171309073  0.0029826849540697
  0.1685200135254021  0.5042604445275600  0.3340302665230723
  0.4937835750690098  0.5035425205001260  0.3330669655646190
  0.8375825436522035  0.5036981492205257  0.3341532068147330
  0.1691990871436957  0.8307222426550993  0.3356261344240323
  0.4981765047516191  0.8327526988659102  0.3318569504715967
  0.8343549665354431  0.8341301253226732  0.3349804271022521
  0.1675902701928607  0.1673014804291668  0.3336933549766101
  0.5029544428493864  0.1639956637466682  0.3328721233274123
  0.8290776518455516  0.1622013930575577  0.3334349314045610
  0.1700845846264230  0.4974809320265763  0.6631026874569628
  0.8345307739247758  0.4988397599629693  0.6650546499628121
  0.1671831661921743  0.8315428138723036  0.6638238990294667
  0.4976407132511795  0.8343257810720388  0.6659904739511973
  0.8337622751725107  0.8337158682782402  0.6645705478873225
  0.1652242967238777  0.1655474495148184  0.6628700331874313
  0.4932734708626043  0.1649349861765828  0.6655939341169343
  0.8377098404373911  0.1688350441260553  0.6669713168273432
  0.2478493439039084  0.4227605002032320  0.1710469969469202
  0.5870862975362598  0.4220543988133372  0.1708326004424165
  0.9195552256752464  0.4267706625552421  0.1698312900879984
  0.2504985603248286  0.7494181906188615  0.1676730523458616
  0.5884031291867515  0.7563294772581699  0.1746773952370972
  0.9194873967656321  0.7454064736329968  0.1686424943117970
  0.5805414528131507  0.0755047298359273  0.1662108374141482
  0.9162598735708087  0.0821757828380001  0.1706877161870324
  0.2458246369412151  0.4184005008618215  0.4956767690787558
  0.9166198132456671  0.4158479515722959  0.4967617491371286
  0.2473862552807589  0.7514941676180555  0.4982891279854229
  0.5775871078376156  0.7531231687298074  0.4991599372995168
  0.9231484135584793  0.7515455447054222  0.5000169648454929
  0.2489917872637406  0.0800141591449517  0.4996013084439710
  0.9145357232658000  0.0798459262649516  0.4984419845390065
  0.2487334532864764  0.4187040152360026  0.8285462392312724
  0.5788396399660485  0.4140749094488072  0.8325730863293970
  0.9174069135096659  0.4174159828578254  0.8343278761899455
  0.2519255255646655  0.7469310946672110  0.8312364314962508
  0.5804244343295295  0.7486703319392163  0.8345904625675118
  0.9209761816396238  0.7489455028730205  0.8330874340278314
  0.2508035229049383  0.0822871997623338  0.8327750124878008
  0.5784513781404854  0.0842361414338413  0.8319779151786548
  0.9168012512345314  0.0820899597890801  0.8293054206524815
  0.3323680456087601  0.3345806148462174  0.3329068146301637
  0.3330313354821044  0.6745728397598612  0.3341668675404179
  0.6639557458432179  0.0023750972910008  0.3324953927760248
  0.3322774650366824  0.3336305345356223  0.6667386806525286
  0.0883754734015909  0.5878639398083223  0.1694523697097381
  0.7540537160281744  0.5872756846036964  0.1709853613287251
  0.4209890824146711  0.9128644831921449  0.1685739452801513
  0.0843712412459539  0.5844737838226024  0.4993827319438964
  0.0826536767494659  0.9165251373316110  0.4992245880196293
  0.4133409966896338  0.9117207875111646  0.4982011518110596
  0.7570582915901127  0.2434619675798828  0.4978894081098133
  0.4141564800293978  0.5816220250294037  0.8304202339563176
  0.0031611462750547  0.3388826277407162  0.0004388411964626
  0.3323955408743728  0.3310573984058820  0.0006229120255838
  0.6738983084332872  0.3365654609592852  0.0077278169619746
  0.9995978904163110  0.6669330701053156  0.0037080611515563
  0.3363075208240360  0.6686306846589218  0.0016362030181867
  0.6624459127705222  0.6682934535431286  0.9997613568061325
  0.9990718604251185  0.9964151119299487  0.9971288417446118
  0.3312641054257597  0.9996570811498700  0.9992097535262374
  0.6659261843737880  0.0004740519849094  0.0021315638818464
  0.0028118179128356  0.3340137666164651  0.3353991445012596
  0.6656616944950144  0.3320550143824335  0.3321235491577568
  0.0012033832201013  0.6679141001940039  0.3341981696666281
  0.6674942879202916  0.6623721969919529  0.3349598955815623
  0.0028520050033478  0.9985475139473010  0.3370160550583563
  0.3334542095087514  0.9928873671971985  0.3336837617717663
  0.9923293381284637  0.3317648397068567  0.6607455598474559
  0.6739539350172450  0.3321087707300663  0.6693163759382941
  0.0018819350261552  0.6596325879622000  0.6612806060044960
  0.3287218195567760  0.6671945475660479  0.6655991025327026
  0.6674160014734767  0.6714689578170905  0.6702864002172149
  0.0046912611367631  0.9998307192134277  0.6647697844679570
  0.3268908221992817  0.9960988167686295  0.6603070940174263
  0.6626772705524573  0.0017456344369293  0.6661640077215552
  0.4142361887688111  0.5854271260725952  0.1710778521656167
  0.0793762410852210  0.9137634229051201  0.1651877315243411
  0.7498896060191242  0.9099897429231376  0.1665373058648996
  0.0859033777029552  0.2546695248986381  0.1706289610814196
  0.4192544366585693  0.2545941438384318  0.1678943053479287
  0.7517008095723128  0.2566350695746493  0.1734460188410623
  0.4126252736576177  0.5861019299701127  0.4918954104700362
  0.7526981447315677  0.5865946884961346  0.4991338667426390
  0.7488604551921938  0.9134343256719291  0.4976062117284172
  0.0854846948398489  0.2528640810674148  0.5014931502375788
  0.4013932177138386  0.2475913018879154  0.4969488403098055
  0.0840369986929375  0.5788502416359336  0.8318077596625173
  0.7531415409399642  0.5841927250880303  0.8379589823429114
  0.0848398545376625  0.9144276709369947  0.8315460574879339
  0.4186867871506763  0.9168738745696317  0.8350317977453159
  0.7444201800637202  0.9097613628126666  0.8312417498964777
  0.0897012705383275  0.2540071606368812  0.8364803096046032
  0.4089599791253633  0.2516125973905901  0.8303978487641928
  0.7464690280373176  0.2500887650991004  0.8271263257780817
  0.1322125813680159  0.4692070545371507  0.0898105328061334
  0.4650687390934536  0.4590547804040526  0.0900926904881274
  0.7986811921299122  0.4699490666778203  0.0908639500960291
  0.1349273769670631  0.7913469485314266  0.0839282649341442
  0.4678131156298235  0.7963108773740970  0.0909137941557887
  0.8033931610750003  0.7871848306289735  0.0835036284653796
  0.1283001865768298  0.1265364237797684  0.0793897445920209
  0.4669405018478656  0.1243229185031751  0.0856712970085098
  0.7991111657219392  0.1256857353186902  0.0915755343335007
  0.1294676863497841  0.4687600340568849  0.4192847231456298
  0.4543754153501922  0.4519177073755714  0.4077828196785234
  0.7999608861016370  0.4587124725529037  0.4137530573464332
  0.1301079666603115  0.8002549427513443  0.4219974397050805
  0.4561595696788032  0.7948366911221640  0.4156995364089084
  0.8024951740439832  0.7884713069750759  0.4165660132381319
  0.1353850649003689  0.1253671054407377  0.4174182788791754
  0.4579754898510302  0.1276198585467725  0.4120638932827063
  0.7907812745229919  0.1195033248367920  0.4152527886442527
  0.1295653897468441  0.4549936419715337  0.7424531278629232
  0.4524693491290463  0.4549834955284027  0.7551508220735954
  0.8028053933226360  0.4609270853268370  0.7513673112367627
  0.1347565197266505  0.7883509531916033  0.7470058917478255
  0.4649798742156932  0.7903618679288229  0.7487778318976126
  0.8049294855002032  0.7924324113455086  0.7505107889373193
  0.1367331372255762  0.1274810493654073  0.7505642066364260
  0.4597592117151805  0.1234772198018277  0.7485143648547137
  0.7993980071453635  0.1246600439533765  0.7465656207435458
  0.2837482485495642  0.6259484883205104  0.0830731451447662
  0.6330392659937942  0.6346362867798021  0.0984466569361544
  0.9586985428944672  0.6209732091335951  0.0898311815308688
  0.2973104592866420  0.9481023146649648  0.0861254052028499
  0.6150267897611670  0.9522176716478867  0.0819594584555432
  0.9485221779037190  0.9592447560934545  0.0832740373848253
  0.2809778153348148  0.2967189777990384  0.0866705177524167
  0.6168140963343021  0.2940237752012322  0.0869623001161557
  0.9561804444477460  0.3034327428536656  0.0891380499481755
  0.2824305020852336  0.6327044691151826  0.4094308320968381
  0.6124678670640336  0.6267327906454057  0.4188014073337456
  0.9605040173781774  0.6238611343229223  0.4223762342320256
  0.2904367389550586  0.9540052482528338  0.4223544627772498
  0.6193787329978377  0.9533492794904248  0.4066380183170466
  0.9566111805667319  0.9547433626845319  0.4220928811444793
  0.2804962018739090  0.2964376752537277  0.4080497429704764
  0.6307475568316079  0.2775215680294068  0.4167971606533953
  0.9469296560525109  0.2875864494196279  0.4145188082152700
  0.2902885592836455  0.6208153090601201  0.7524256688341566
  0.6207731055199162  0.6289948336925804  0.7552530338106394
  0.9526141443161222  0.6227952383700242  0.7479640397557503
  0.2840879863382355  0.9566016975822791  0.7493693954335043
  0.6145180136472632  0.9590130411961653  0.7511667604593981
  0.9516730891788470  0.9578420502210250  0.7468296169090891
  0.2813829429314580  0.2934934257504480  0.7414519760088112
  0.6099345684898196  0.2900098442015135  0.7448867379940083
  0.9538385894713812  0.2939157085295037  0.7525062054049130
  0.2157143488204909  0.3846482043881068  0.2575296302684222
  0.5437484446762184  0.3906335915979113  0.2541735417324773
  0.8796934868764623  0.3879234610496738  0.2514988166453165
  0.2096564117609105  0.7098207880057075  0.2507968485251766
  0.5428953297423860  0.7159684973666529  0.2525367627588153
  0.8693162306692130  0.7118837827650140  0.2480483869838963
  0.2067896778171985  0.0467114321724367  0.2543969464818616
  0.5390324679956962  0.0373235030585874  0.2490852448200371
  0.8750831721270060  0.0465243532927389  0.2530252186061546
  0.2177801602001352  0.3802965225200055  0.5847342753080085
  0.5392034373724641  0.3699424184377662  0.5826319971269243
  0.8659491310518419  0.3769250445852492  0.5738438164600481
  0.2014401962479724  0.7099198497672035  0.5764274450008813
  0.5406625117046957  0.7178869431910897  0.5837846116343499
  0.8796599423128555  0.7193907376078243  0.5831661070594976
  0.1976078271423987  0.0417196773561272  0.5758263632606671
  0.5274013656101317  0.0409108769055422  0.5802863977138060
  0.8753080445621109  0.0482677587213800  0.5833269895519351
  0.2133007937621940  0.3884919640892051  0.9177841953798733
  0.5440285622813121  0.3758969878458274  0.9156010134881925
  0.8725834784598163  0.3839007963888506  0.9161864808544635
  0.2088207273182121  0.7128685020177130  0.9135501665742041
  0.5306600806516499  0.7065031770768968  0.9107373101131060
  0.8779538011074379  0.7180911451492804  0.9174505706851619
  0.2075608068194796  0.0522268662497254  0.9170287145604306
  0.5422866968270554  0.0521040059472710  0.9188232921635233
  0.8740867848176350  0.0414506994938648  0.9077918342949189
  0.0481243257554809  0.5405932296801694  0.2467869060789880
  0.3694078289859348  0.5453915142122341  0.2578141001989209
  0.7146930158540812  0.5379282919582877  0.2469750983004602
  0.0435387320713474  0.8634074738100495  0.2518256484351227
  0.3768097798948702  0.8663817511756591  0.2442009533085638
  0.7095886558531035  0.8780910033402307  0.2604499179281561
  0.0412978625157834  0.1987739196305327  0.2501894225278676
  0.3837883727333349  0.2157079501459549  0.2613378805285294
  0.7048434358610081  0.1936626102154904  0.2482797104966181
  0.0466520421345749  0.5305441066092911  0.5746352455252008
  0.3671217181457962  0.5363121574845380  0.5743694115234916
  0.7136643857731713  0.5401850308656790  0.5871651794585588
  0.0473573712247273  0.8694966464061693  0.5783315329998331
  0.3750837575585351  0.8672302353082202  0.5779149954447220
  0.7059386678386943  0.8672024703074328  0.5826505279527368
  0.0382377432031120  0.1982496948938746  0.5804938461776388
  0.3674394245993824  0.2049648392253474  0.5883341955872083
  0.7200116545827413  0.2072653746718629  0.5820959252195763
  0.0421555999334302  0.5340527729698152  0.9178292058611177
  0.3712886143136771  0.5389794686074936  0.9074208484548123
  0.7054461490941790  0.5321992567669867  0.9169881602833172
  0.0471870138734047  0.8651931038088208  0.9180371602077031
  0.3750521514222811  0.8648194951350945  0.9166635900791604
  0.7062969615937718  0.8648945368555516  0.9194242265069477
  0.0399988295996820  0.2020260490737158  0.9149605334642317
  0.3754707024560915  0.1993826811471564  0.9172623575329126
  0.7007215493608712  0.2022063612387797  0.9104937100872590

  0.00000000E+00  0.00000000E+00  0.00000000E+00
  0.00000000E+00  0.00000000E+00  0.00000000E+00
  0.00000000E+00  0.00000000E+00  0.00000000E+00
  0.00000000E+00  0.00000000E+00  0.00000000E+00
  0.00000000E+00  0.00000000E+00  0.00000000E+00
  0.00000000E+00  0.00000000E+00  0.00000000E+00
  0.00000000E+00  0.00000000E+00  0.00000000E+00
  0.00000000E+00  0.00000000E+00  0.00000000E+00
  0.00000000E+00  0.00000000E+00  0.00000000E+00
  0.00000000E+00  0.00000000E+00  0.00000000E+00
  0.00000000E+00  0.00000000E+00  0.00000000E+00
  0.00000000E+00  0.00000000E+00  0.00000000E+00
  0.00000000E+00  0.00000000E+00  0.00000000E+00
  0.00000000E+00  0.00000000E+00  0.00000000E+00
  0.00000000E+00  0.00000000E+00  0.00000000E+00
  0.00000000E+00  0.00000000E+00  0.00000000E+00
  0.00000000E+00  0.00000000E+00  0.00000000E+00
  0.00000000E+00  0.00000000E+00  0.00000000E+00
  0.00000000E+00  0.00000000E+00  0.00000000E+00
  0.00000000E+00  0.00000000E+00  0.00000000E+00
  0.00000000E+00  0.00000000E+00  0.00000000E+00
  0.00000000E+00  0.00000000E+00  0.00000000E+00
  0.00000000E+00  0.00000000E+00  0.00000000E+00
  0.00000000E+00  0.00000000E+00  0.00000000E+00
  0.00000000E+00  0.00000000E+00  0.00000000E+00
  0.00000000E+00  0.00000000E+00  0.00000000E+00
  0.00000000E+00  0.00000000E+00  0.00000000E+00
  0.00000000E+00  0.00000000E+00  0.00000000E+00
  0.00000000E+00  0.00000000E+00  0.00000000E+00
  0.00000000E+00  0.00000000E+00  0.00000000E+00
  0.00000000E+00  0.00000000E+00  0.00000000E+00
  0.00000000E+00  0.00000000E+00  0.00000000E+00
  0.00000000E+00  0.00000000E+00  0.00000000E+00
  0.00000000E+00  0.00000000E+00  0.00000000E+00
  0.00000000E+00  0.00000000E+00  0.00000000E+00
  0.00000000E+00  0.00000000E+00  0.00000000E+00
  0.00000000E+00  0.00000000E+00  0.00000000E+00
  0.00000000E+00  0.00000000E+00  0.00000000E+00
  0.00000000E+00  0.00000000E+00  0.00000000E+00
  0.00000000E+00  0.00000000E+00  0.00000000E+00
  0.00000000E+00  0.00000000E+00  0.00000000E+00
  0.00000000E+00  0.00000000E+00  0.00000000E+00
  0.00000000E+00  0.00000000E+00  0.00000000E+00
  0.00000000E+00  0.00000000E+00  0.00000000E+00
  0.00000000E+00  0.00000000E+00  0.00000000E+00
  0.00000000E+00  0.00000000E+00  0.00000000E+00
  0.00000000E+00  0.00000000E+00  0.00000000E+00
  0.00000000E+00  0.00000000E+00  0.00000000E+00
  0.00000000E+00  0.00000000E+00  0.00000000E+00
  0.00000000E+00  0.00000000E+00  0.00000000E+00
  0.00000000E+00  0.00000000E+00  0.00000000E+00
  0.00000000E+00  0.00000000E+00  0.00000000E+00
  0.00000000E+00  0.00000000E+00  0.00000000E+00
  0.00000000E+00  0.00000000E+00  0.00000000E+00
  0.00000000E+00  0.00000000E+00  0.00000000E+00
  0.00000000E+00  0.00000000E+00  0.00000000E+00
  0.00000000E+00  0.00000000E+00  0.00000000E+00
  0.00000000E+00  0.00000000E+00  0.00000000E+00
  0.00000000E+00  0.00000000E+00  0.00000000E+00
  0.00000000E+00  0.00000000E+00  0.00000000E+00
  0.00000000E+00  0.00000000E+00  0.00000000E+00
  0.00000000E+00  0.00000000E+00  0.00000000E+00
  0.00000000E+00  0.00000000E+00  0.00000000E+00
  0.00000000E+00  0.00000000E+00  0.00000000E+00
  0.00000000E+00  0.00000000E+00  0.00000000E+00
  0.00000000E+00  0.00000000E+00  0.00000000E+00
  0.00000000E+00  0.00000000E+00  0.00000000E+00
  0.00000000E+00  0.00000000E+00  0.00000000E+00
  0.00000000E+00  0.00000000E+00  0.00000000E+00
  0.00000000E+00  0.00000000E+00  0.00000000E+00
  0.00000000E+00  0.00000000E+00  0.00000000E+00
  0.00000000E+00  0.00000000E+00  0.00000000E+00
  0.00000000E+00  0.00000000E+00  0.00000000E+00
  0.00000000E+00  0.00000000E+00  0.00000000E+00
  0.00000000E+00  0.00000000E+00  0.00000000E+00
  0.00000000E+00  0.00000000E+00  0.00000000E+00
  0.00000000E+00  0.00000000E+00  0.00000000E+00
  0.00000000E+00  0.00000000E+00  0.00000000E+00
  0.00000000E+00  0.00000000E+00  0.00000000E+00
  0.00000000E+00  0.00000000E+00  0.00000000E+00
  0.00000000E+00  0.00000000E+00  0.00000000E+00
  0.00000000E+00  0.00000000E+00  0.00000000E+00
  0.00000000E+00  0.00000000E+00  0.00000000E+00
  0.00000000E+00  0.00000000E+00  0.00000000E+00
  0.00000000E+00  0.00000000E+00  0.00000000E+00
  0.00000000E+00  0.00000000E+00  0.00000000E+00
  0.00000000E+00  0.00000000E+00  0.00000000E+00
  0.00000000E+00  0.00000000E+00  0.00000000E+00
  0.00000000E+00  0.00000000E+00  0.00000000E+00
  0.00000000E+00  0.00000000E+00  0.00000000E+00
  0.00000000E+00  0.00000000E+00  0.00000000E+00
  0.00000000E+00  0.00000000E+00  0.00000000E+00
  0.00000000E+00  0.00000000E+00  0.00000000E+00
  0.00000000E+00  0.00000000E+00  0.00000000E+00
  0.00000000E+00  0.00000000E+00  0.00000000E+00
  0.00000000E+00  0.00000000E+00  0.00000000E+00
  0.00000000E+00  0.00000000E+00  0.00000000E+00
  0.00000000E+00  0.00000000E+00  0.00000000E+00
  0.00000000E+00  0.00000000E+00  0.00000000E+00
  0.00000000E+00  0.00000000E+00  0.00000000E+00
  0.00000000E+00  0.00000000E+00  0.00000000E+00
  0.00000000E+00  0.00000000E+00  0.00000000E+00
  0.00000000E+00  0.00000000E+00  0.00000000E+00
  0.00000000E+00  0.00000000E+00  0.00000000E+00
  0.00000000E+00  0.00000000E+00  0.00000000E+00
  0.00000000E+00  0.00000000E+00  0.00000000E+00
  0.00000000E+00  0.00000000E+00  0.00000000E+00
  0.00000000E+00  0.00000000E+00  0.00000000E+00
  0.00000000E+00  0.00000000E+00  0.00000000E+00
  0.00000000E+00  0.00000000E+00  0.00000000E+00
  0.00000000E+00  0.00000000E+00  0.00000000E+00
  0.00000000E+00  0.00000000E+00  0.00000000E+00
  0.00000000E+00  0.00000000E+00  0.00000000E+00
  0.00000000E+00  0.00000000E+00  0.00000000E+00
  0.00000000E+00  0.00000000E+00  0.00000000E+00
  0.00000000E+00  0.00000000E+00  0.00000000E+00
  0.00000000E+00  0.00000000E+00  0.00000000E+00
  0.00000000E+00  0.00000000E+00  0.00000000E+00
  0.00000000E+00  0.00000000E+00  0.00000000E+00
  0.00000000E+00  0.00000000E+00  0.00000000E+00
  0.00000000E+00  0.00000000E+00  0.00000000E+00
  0.00000000E+00  0.00000000E+00  0.00000000E+00
  0.00000000E+00  0.00000000E+00  0.00000000E+00
  0.00000000E+00  0.00000000E+00  0.00000000E+00
  0.00000000E+00  0.00000000E+00  0.00000000E+00
  0.00000000E+00  0.00000000E+00  0.00000000E+00
  0.00000000E+00  0.00000000E+00  0.00000000E+00
  0.00000000E+00  0.00000000E+00  0.00000000E+00
  0.00000000E+00  0.00000000E+00  0.00000000E+00
  0.00000000E+00  0.00000000E+00  0.00000000E+00
  0.00000000E+00  0.00000000E+00  0.00000000E+00
  0.00000000E+00  0.00000000E+00  0.00000000E+00
  0.00000000E+00  0.00000000E+00  0.00000000E+00
  0.00000000E+00  0.00000000E+00  0.00000000E+00
  0.00000000E+00  0.00000000E+00  0.00000000E+00
  0.00000000E+00  0.00000000E+00  0.00000000E+00
  0.00000000E+00  0.00000000E+00  0.00000000E+00
  0.00000000E+00  0.00000000E+00  0.00000000E+00
  0.00000000E+00  0.00000000E+00  0.00000000E+00
  0.00000000E+00  0.00000000E+00  0.00000000E+00
  0.00000000E+00  0.00000000E+00  0.00000000E+00
  0.00000000E+00  0.00000000E+00  0.00000000E+00
  0.00000000E+00  0.00000000E+00  0.00000000E+00
  0.00000000E+00  0.00000000E+00  0.00000000E+00
  0.00000000E+00  0.00000000E+00  0.00000000E+00
  0.00000000E+00  0.00000000E+00  0.00000000E+00
  0.00000000E+00  0.00000000E+00  0.00000000E+00
  0.00000000E+00  0.00000000E+00  0.00000000E+00
  0.00000000E+00  0.00000000E+00  0.00000000E+00
  0.00000000E+00  0.00000000E+00  0.00000000E+00
  0.00000000E+00  0.00000000E+00  0.00000000E+00
  0.00000000E+00  0.00000000E+00  0.00000000E+00
  0.00000000E+00  0.00000000E+00  0.00000000E+00
  0.00000000E+00  0.00000000E+00  0.00000000E+00
  0.00000000E+00  0.00000000E+00  0.00000000E+00
  0.00000000E+00  0.00000000E+00  0.00000000E+00
  0.00000000E+00  0.00000000E+00  0.00000000E+00
  0.00000000E+00  0.00000000E+00  0.00000000E+00
  0.00000000E+00  0.00000000E+00  0.00000000E+00
  0.00000000E+00  0.00000000E+00  0.00000000E+00
  0.00000000E+00  0.00000000E+00  0.00000000E+00
  0.00000000E+00  0.00000000E+00  0.00000000E+00
  0.00000000E+00  0.00000000E+00  0.00000000E+00
  0.00000000E+00  0.00000000E+00  0.00000000E+00
  0.00000000E+00  0.00000000E+00  0.00000000E+00
  0.00000000E+00  0.00000000E+00  0.00000000E+00
  0.00000000E+00  0.00000000E+00  0.00000000E+00
  0.00000000E+00  0.00000000E+00  0.00000000E+00
  0.00000000E+00  0.00000000E+00  0.00000000E+00
  0.00000000E+00  0.00000000E+00  0.00000000E+00
  0.00000000E+00  0.00000000E+00  0.00000000E+00
  0.00000000E+00  0.00000000E+00  0.00000000E+00
  0.00000000E+00  0.00000000E+00  0.00000000E+00
  0.00000000E+00  0.00000000E+00  0.00000000E+00
  0.00000000E+00  0.00000000E+00  0.00000000E+00
  0.00000000E+00  0.00000000E+00  0.00000000E+00
  0.00000000E+00  0.00000000E+00  0.00000000E+00
  0.00000000E+00  0.00000000E+00  0.00000000E+00
  0.00000000E+00  0.00000000E+00  0.00000000E+00
  0.00000000E+00  0.00000000E+00  0.00000000E+00
  0.00000000E+00  0.00000000E+00  0.00000000E+00
  0.00000000E+00  0.00000000E+00  0.00000000E+00
  0.00000000E+00  0.00000000E+00  0.00000000E+00
  0.00000000E+00  0.00000000E+00  0.00000000E+00
  0.00000000E+00  0.00000000E+00  0.00000000E+00
  0.00000000E+00  0.00000000E+00  0.00000000E+00
  0.00000000E+00  0.00000000E+00  0.00000000E+00
  0.00000000E+00  0.00000000E+00  0.00000000E+00
  0.00000000E+00  0.00000000E+00  0.00000000E+00
  0.00000000E+00  0.00000000E+00  0.00000000E+00
  0.00000000E+00  0.00000000E+00  0.00000000E+00
  0.00000000E+00  0.00000000E+00  0.00000000E+00
  0.00000000E+00  0.00000000E+00  0.00000000E+00
  0.00000000E+00  0.00000000E+00  0.00000000E+00
  0.00000000E+00  0.00000000E+00  0.00000000E+00
  0.00000000E+00  0.00000000E+00  0.00000000E+00
  0.00000000E+00  0.00000000E+00  0.00000000E+00
  0.00000000E+00  0.00000000E+00  0.00000000E+00
  0.00000000E+00  0.00000000E+00  0.00000000E+00
  0.00000000E+00  0.00000000E+00  0.00000000E+00
  0.00000000E+00  0.00000000E+00  0.00000000E+00
  0.00000000E+00  0.00000000E+00  0.00000000E+00
  0.00000000E+00  0.00000000E+00  0.00000000E+00
  0.00000000E+00  0.00000000E+00  0.00000000E+00
  0.00000000E+00  0.00000000E+00  0.00000000E+00
  0.00000000E+00  0.00000000E+00  0.00000000E+00
  0.00000000E+00  0.00000000E+00  0.00000000E+00
  0.00000000E+00  0.00000000E+00  0.00000000E+00
  0.00000000E+00  0.00000000E+00  0.00000000E+00
  0.00000000E+00  0.00000000E+00  0.00000000E+00
  0.00000000E+00  0.00000000E+00  0.00000000E+00
  0.00000000E+00  0.00000000E+00  0.00000000E+00
  0.00000000E+00  0.00000000E+00  0.00000000E+00
  0.00000000E+00  0.00000000E+00  0.00000000E+00
  0.00000000E+00  0.00000000E+00  0.00000000E+00
  0.00000000E+00  0.00000000E+00  0.00000000E+00
