In24 Ga30 Cu48 Ag6 Se108                
   1.0000000000000000     
    15.8630808843395865   -0.0035036258554243   -7.1145105097051049
    -3.1666050840587454   15.5840200008704652   -7.0859312511549692
     0.0190338661558746   -0.0368261956924878   21.2587145962884172
   In   Ga   Cu   Ag   Se
    24    30    48     6   108
Direct
  0.8359442802563493  0.1657906173520090  0.0018141724533578
  0.4977466910648616  0.4990849771804875  0.3338599964286075
  0.8323106611080391  0.4992406553152406  0.3324782776418260
  0.1649700393514451  0.8294992761735500  0.3310444357104600
  0.8346495331020307  0.8329726763938368  0.3308429756774558
  0.8376617940450686  0.1668065950981301  0.3335380623861823
  0.1692982208206928  0.5027219319912319  0.6683872345432320
  0.5013733179258253  0.5024771471031642  0.6691837903973408
  0.5032486599917831  0.8273337070652289  0.6662496936991715
  0.8328918747905050  0.8303299415915291  0.6670418132645040
  0.5017182611540747  0.1719586349101263  0.6692401199985909
  0.5817790071809412  0.4146585867304466  0.1615653100745860
  0.9180402644386021  0.4192525801631746  0.1657500258260995
  0.2489030108508032  0.0845173044889549  0.1661393137589400
  0.5781770840083951  0.0831315410367921  0.1634801628627898
  0.2483436090477724  0.4157269294804422  0.4960385499949425
  0.9166465416748437  0.4201534900963040  0.5027005315429207
  0.9208833589635006  0.7486924976445408  0.5011797063020538
  0.2481524105695811  0.0875767976161157  0.4991739603307792
  0.5813776060878126  0.0823764856624862  0.4988535318284306
  0.2521159224891889  0.4172235607789858  0.8361442343923571
  0.2504782125322080  0.0844760291753559  0.8355814444326271
  0.5849883520695798  0.0852250821771108  0.8371431569579642
  0.9176250197292006  0.0826898538808862  0.8322007527365969
  0.1673044211852854  0.4956906060278286  0.0012627895812614
  0.5002433050906276  0.5037387829420794  0.0003691381337134
  0.8305212766652019  0.4995041504922781  0.9985635634238363
  0.1692953048890686  0.8346251393900772  0.0000592047713965
  0.5006847627562294  0.8302312483664025  0.0001651607567510
  0.8316847082228662  0.8336438192887456  0.9986847447955753
  0.1651202795031068  0.1690219653680884  0.0011216244740098
  0.4995671731218891  0.1666201031064674  0.9991410060957904
  0.1683373799324528  0.5008986978505874  0.3318924551610181
  0.4961031223730501  0.8233268007827306  0.3281203781473394
  0.1604959830755988  0.1665982796349041  0.3292229320111844
  0.4988774700298464  0.1730886991461560  0.3340880278632241
  0.8311411731238394  0.5017232854713214  0.6695301606439159
  0.1688796748451296  0.8309162149594371  0.6694093966000878
  0.1646416458758608  0.1710068607707527  0.6672592091218448
  0.8350064007797044  0.1703995316992746  0.6683070525305155
  0.2476735841970381  0.4157413974409394  0.1652182690444235
  0.2499755660836840  0.7452488024469233  0.1622385867897620
  0.5810971408946912  0.7471144797957194  0.1637479659906163
  0.9149326176393373  0.7460003092464973  0.1628792407900121
  0.9168255095340783  0.0791969448169141  0.1647247219058627
  0.5834591288179922  0.4144766336900645  0.5007278103753094
  0.2479368758650367  0.7456274720175387  0.4987530204413559
  0.5818865259536423  0.7469147218470269  0.4976919845641277
  0.9226636506913906  0.0884893558108359  0.5050603715964996
  0.5854796756936693  0.4210753516818571  0.8375549803029188
  0.9156444910071286  0.4154227782135607  0.8347663279601321
  0.2543971538751677  0.7541033842597713  0.8375254105707839
  0.5864412033766797  0.7510903870399517  0.8381894201134159
  0.9145069076943528  0.7513348862590732  0.8348188739152533
  0.0016227619751561  0.3360505786479209  0.9982055680549067
  0.3332613574394472  0.3331056168431843  0.0035282002350030
  0.6635203834671444  0.3345010861091140  0.9970929420132748
  0.3368862875234910  0.6694798215929012  0.0032966977767686
  0.6672891233830143  0.6656299740145997  0.0005026929785998
  0.0018487210508766  0.9959259026139904  0.9987251535567836
  0.3313918463483319  0.9993053372118652  0.9985410099636169
  0.6660808283894397  0.9977132276666936  0.0017082322918753
  0.0008568238197668  0.3311646365262177  0.3285121974629917
  0.3319280351762970  0.3344414914809306  0.3311973247848243
  0.6628738924623718  0.3318501794939053  0.3342360915410083
  0.0038599500940606  0.6676070009958650  0.3315300831619012
  0.3305551632023551  0.6620505548336837  0.3300924239256275
  0.6608953857160387  0.6637336401064573  0.3290292269046375
  0.9969666763994880  0.9980480671524958  0.3305969229852153
  0.9945848473159344  0.3281510193787014  0.6664614037742425
  0.3369685898272294  0.3357264793045687  0.6713861953584654
  0.6719519049100739  0.3389839756112707  0.6705759192993526
  0.0045222751606815  0.6709769946090063  0.6715832444516749
  0.3343175027597169  0.6714521115271026  0.6718167593556359
  0.6684812390532997  0.6644153832782038  0.6672602308453790
  0.0062034572598932  0.0043966801518351  0.6690822371808451
  0.6663618007804715  0.0035417096110422  0.6692141289401619
  0.0852735387601768  0.5806423295041085  0.1643986042262995
  0.4119656224854396  0.5839333706434857  0.1621659476308750
  0.7500839609090875  0.5859930041690973  0.1626196385732683
  0.0742311150639097  0.9138237576538160  0.1625717466992711
  0.4134201927546997  0.9117960265724676  0.1630577095760657
  0.7503209167675138  0.9093672654455105  0.1578237198990209
  0.0867324826363998  0.2515894593539514  0.1685125155953955
  0.4128632543389728  0.2492358519785256  0.1631528011053760
  0.7470461664024413  0.2450541713940524  0.1635149268950116
  0.0896591513027403  0.5857353129826066  0.4997450756139017
  0.4142151230926956  0.5830913350832745  0.4980713077060486
  0.7453015150366298  0.5821824218906144  0.5027462813545611
  0.0820780963697416  0.9167780803995527  0.5019262720038711
  0.4200125506072254  0.9066571069569918  0.4960524901760479
  0.0850648917689867  0.2492624629318883  0.5008013541729568
  0.4152735518999435  0.2562345421734591  0.4975665713827269
  0.7493778602106644  0.2557765709988331  0.5053026199453399
  0.4220182299059658  0.5880651312219669  0.8381835103580570
  0.7505749543440601  0.5845400325550330  0.8356383123158864
  0.0849587289671589  0.9139871226157439  0.8356499437813554
  0.4211151001341165  0.9132741565898854  0.8401560706716324
  0.7485150894611365  0.9122174647509880  0.8361543618634499
  0.0823284897315872  0.2533522197381615  0.8339101670968105
  0.4186114032356798  0.2584366511746055  0.8400221991254639
  0.7529563846817950  0.2546005162697327  0.8326682664638554
  0.0034368860222642  0.6706516540522500  0.0039358963062952
  0.3326506804218354  0.9966919874508378  0.3270246487704824
  0.6688315655485937  0.0034681952090168  0.3298031665773067
  0.3303825262042679  0.9946547960733909  0.6645599660575243
  0.7534872217955240  0.9219229125795252  0.5050834608583230
  0.0817653382227519  0.5896263174685146  0.8351343924802563
  0.1230793363481055  0.4572606530799277  0.0833461069737780
  0.4483396880098169  0.4611626517218710  0.0770430228411740
  0.7813988127024771  0.4598229417220665  0.0775616996354529
  0.1329132493388911  0.8017328583611842  0.0892668503374026
  0.4577709019055050  0.7917050922587237  0.0838804200519476
  0.7904722281756662  0.7865028493043908  0.0789726761743097
  0.1147917957898059  0.1267848501720792  0.0781502420959441
  0.4460782860468768  0.1274232591910263  0.0757729379741008
  0.7874327908499623  0.1194357271525490  0.0870910065449806
  0.1157933716937976  0.4598037013852192  0.4085346456675296
  0.4537537169057373  0.4549903667863688  0.4224419916407598
  0.7776311252775017  0.4582681819213690  0.4164249706994596
  0.1213479959216173  0.7911573136422163  0.4227600628788437
  0.4542303558188436  0.7830820178014335  0.4116426869862693
  0.7836894325268631  0.7838877178152899  0.4115531451864882
  0.1127723080334633  0.1259907733798897  0.4086644123485073
  0.4545482448780405  0.1359204329435926  0.4156819013106414
  0.7976302365602876  0.1343405576189980  0.4295625471014688
  0.1146364367936599  0.4504361410688702  0.7454659506557917
  0.4559747173617268  0.4595077266710774  0.7577810732297223
  0.7922331158835547  0.4625620356672826  0.7548727256409364
  0.1263015027252266  0.7919886258679725  0.7538306559389909
  0.4588929620588189  0.7904331600814629  0.7580405674120456
  0.7865972154188938  0.7892242423096008  0.7552127475717541
  0.1196987374642760  0.1324675230691668  0.7491249107198428
  0.4527022450342599  0.1339938747385716  0.7567585975370577
  0.7838465480912120  0.1284037405171503  0.7455154428159929
  0.2898380082743515  0.6220024895908693  0.0780367465911098
  0.6262798653541068  0.6257037586620129  0.0823151678757270
  0.9578244707414143  0.6191595540169033  0.0866467005986422
  0.2962397345442795  0.9537030082796036  0.0795877639364377
  0.6268147534025630  0.9505618391439583  0.0795511133107212
  0.9576380348906142  0.9560096088277774  0.0793613788362748
  0.2916747317279729  0.2917479400054006  0.0842468966099545
  0.6296677169796538  0.2829774655608261  0.0759851290690250
  0.9714676675309377  0.2929937218848977  0.0827677381594114
  0.2932304129980565  0.6239988368110261  0.4151714686116748
  0.6327894070079765  0.6295383547187967  0.4194330902019772
  0.9708260874610701  0.6233918581947080  0.4139739647551082
  0.3010252347578586  0.9552675922944971  0.4218390338344378
  0.6157365302416906  0.9473062990075860  0.4068658245790786
  0.9667364442304773  0.9660275607876798  0.4218094919395483
  0.2909671700445102  0.2837158378812745  0.4068609977943751
  0.6281675719991995  0.2919920025628073  0.4181500470351480
  0.9722164734744467  0.2958731501168685  0.4181378481414981
  0.3030880259981075  0.6336757263253787  0.7589027652804106
  0.6343661541176644  0.6329449514979046  0.7568029057772137
  0.9504854651623091  0.6295531157224232  0.7459520348114523
  0.2969428681471342  0.9474842128971304  0.7552575076898123
  0.6366374284298217  0.9581904475140490  0.7526671411206536
  0.9707945583287412  0.9561893647669635  0.7486244971924449
  0.2963833879197679  0.2859894490586754  0.7474124462816008
  0.6347575007337767  0.3035676102012062  0.7564719182944657
  0.9594305354200330  0.2927812834941577  0.7528816802325196
  0.2093469414003408  0.3742617887701130  0.2500611068992526
  0.5397617926438585  0.3639117065029041  0.2473222136516853
  0.8723098970669838  0.3620376198793807  0.2459613796069675
  0.2096983099616878  0.6983018076271890  0.2423248971068119
  0.5391213636201897  0.7013138665337735  0.2452587129165593
  0.8791836865050300  0.6993941079801687  0.2447153269834885
  0.1932188952348994  0.0377759391790633  0.2464407029877123
  0.5270748006088155  0.0417785783861930  0.2485739286165511
  0.8738789092360264  0.0293589407728234  0.2422323224903167
  0.2114141664071383  0.3657897261202621  0.5843251407719805
  0.5452989948136917  0.3682685503192005  0.5818350580728975
  0.8731954938583684  0.3748969022662152  0.5911489437729287
  0.2115259019465512  0.7066911723482505  0.5859580286958419
  0.5450082140035377  0.6944565865199692  0.5766832933802633
  0.8751235386929963  0.6945677406491413  0.5829097233344029
  0.1977945651352826  0.0433767693827249  0.5836188639008455
  0.5385853122351705  0.0308208080226393  0.5836528919961097
  0.8852483810933478  0.0496585730513459  0.5908915964484862
  0.2077736191801520  0.3693641935779084  0.9222091447449685
  0.5415346984256857  0.3778247804591217  0.9186374780714814
  0.8758346846761924  0.3744909351039780  0.9184156386542881
  0.2174513249868042  0.7137332432826042  0.9226073275095885
  0.5453171967571038  0.7068807960452403  0.9195775118728591
  0.8696185106713727  0.7093052209392781  0.9144106132099026
  0.2041269197504150  0.0391522773205892  0.9222700766364156
  0.5402337902577301  0.0369536900814751  0.9229340061007250
  0.8747675348534969  0.0278777837436550  0.9151439632834553
  0.0509986946726002  0.5508611651332345  0.2532266924769075
  0.3676086070540094  0.5429610243820804  0.2426144130035510
  0.7076645741962437  0.5516805853876150  0.2461316995840122
  0.0327183237015092  0.8752942100951060  0.2438966977673331
  0.3765150563513231  0.8638201468957050  0.2420312240127700
  0.7036192251341831  0.8699321957478929  0.2362889075083316
  0.0384798640725350  0.2084190554797161  0.2452336054348478
  0.3792872165957917  0.2187011640093317  0.2523092957097930
  0.7070681519293700  0.2178764065571812  0.2507919865910964
  0.0444268620397494  0.5560402803967364  0.5838478581107935
  0.3735658137783560  0.5543540609941289  0.5848731632608590
  0.7060261821691753  0.5407992257368406  0.5844868393110616
  0.0510970289519435  0.8834406712125613  0.5913045691395880
  0.3720492588766433  0.8666153605824860  0.5730163309009271
  0.6977394922495535  0.8761256753481987  0.5850453183484348
  0.0426908636950998  0.2152257321452851  0.5847628053988814
  0.3761658413631821  0.2229242137288807  0.5823718469625092
  0.7134453532088330  0.2165848560532027  0.5892366893745447
  0.0425177781767587  0.5328741467924871  0.9182310310337627
  0.3812904669098955  0.5526087089861846  0.9216709677077048
  0.7090745636263662  0.5459573701907914  0.9177477518109072
  0.0421947679848174  0.8739542324182921  0.9166066286668197
  0.3779018318739205  0.8779918838333671  0.9216292191226003
  0.7071004256343869  0.8779356570189947  0.9193325215089061
  0.0473785339538253  0.2170485752684073  0.9197577896311344
  0.3814814274673779  0.2187857619117395  0.9229581561379447
  0.7119274641309516  0.2206267871402048  0.9169538893959626

  0.00000000E+00  0.00000000E+00  0.00000000E+00
  0.00000000E+00  0.00000000E+00  0.00000000E+00
  0.00000000E+00  0.00000000E+00  0.00000000E+00
  0.00000000E+00  0.00000000E+00  0.00000000E+00
  0.00000000E+00  0.00000000E+00  0.00000000E+00
  0.00000000E+00  0.00000000E+00  0.00000000E+00
  0.00000000E+00  0.00000000E+00  0.00000000E+00
  0.00000000E+00  0.00000000E+00  0.00000000E+00
  0.00000000E+00  0.00000000E+00  0.00000000E+00
  0.00000000E+00  0.00000000E+00  0.00000000E+00
  0.00000000E+00  0.00000000E+00  0.00000000E+00
  0.00000000E+00  0.00000000E+00  0.00000000E+00
  0.00000000E+00  0.00000000E+00  0.00000000E+00
  0.00000000E+00  0.00000000E+00  0.00000000E+00
  0.00000000E+00  0.00000000E+00  0.00000000E+00
  0.00000000E+00  0.00000000E+00  0.00000000E+00
  0.00000000E+00  0.00000000E+00  0.00000000E+00
  0.00000000E+00  0.00000000E+00  0.00000000E+00
  0.00000000E+00  0.00000000E+00  0.00000000E+00
  0.00000000E+00  0.00000000E+00  0.00000000E+00
  0.00000000E+00  0.00000000E+00  0.00000000E+00
  0.00000000E+00  0.00000000E+00  0.00000000E+00
  0.00000000E+00  0.00000000E+00  0.00000000E+00
  0.00000000E+00  0.00000000E+00  0.00000000E+00
  0.00000000E+00  0.00000000E+00  0.00000000E+00
  0.00000000E+00  0.00000000E+00  0.00000000E+00
  0.00000000E+00  0.00000000E+00  0.00000000E+00
  0.00000000E+00  0.00000000E+00  0.00000000E+00
  0.00000000E+00  0.00000000E+00  0.00000000E+00
  0.00000000E+00  0.00000000E+00  0.00000000E+00
  0.00000000E+00  0.00000000E+00  0.00000000E+00
  0.00000000E+00  0.00000000E+00  0.00000000E+00
  0.00000000E+00  0.00000000E+00  0.00000000E+00
  0.00000000E+00  0.00000000E+00  0.00000000E+00
  0.00000000E+00  0.00000000E+00  0.00000000E+00
  0.00000000E+00  0.00000000E+00  0.00000000E+00
  0.00000000E+00  0.00000000E+00  0.00000000E+00
  0.00000000E+00  0.00000000E+00  0.00000000E+00
  0.00000000E+00  0.00000000E+00  0.00000000E+00
  0.00000000E+00  0.00000000E+00  0.00000000E+00
  0.00000000E+00  0.00000000E+00  0.00000000E+00
  0.00000000E+00  0.00000000E+00  0.00000000E+00
  0.00000000E+00  0.00000000E+00  0.00000000E+00
  0.00000000E+00  0.00000000E+00  0.00000000E+00
  0.00000000E+00  0.00000000E+00  0.00000000E+00
  0.00000000E+00  0.00000000E+00  0.00000000E+00
  0.00000000E+00  0.00000000E+00  0.00000000E+00
  0.00000000E+00  0.00000000E+00  0.00000000E+00
  0.00000000E+00  0.00000000E+00  0.00000000E+00
  0.00000000E+00  0.00000000E+00  0.00000000E+00
  0.00000000E+00  0.00000000E+00  0.00000000E+00
  0.00000000E+00  0.00000000E+00  0.00000000E+00
  0.00000000E+00  0.00000000E+00  0.00000000E+00
  0.00000000E+00  0.00000000E+00  0.00000000E+00
  0.00000000E+00  0.00000000E+00  0.00000000E+00
  0.00000000E+00  0.00000000E+00  0.00000000E+00
  0.00000000E+00  0.00000000E+00  0.00000000E+00
  0.00000000E+00  0.00000000E+00  0.00000000E+00
  0.00000000E+00  0.00000000E+00  0.00000000E+00
  0.00000000E+00  0.00000000E+00  0.00000000E+00
  0.00000000E+00  0.00000000E+00  0.00000000E+00
  0.00000000E+00  0.00000000E+00  0.00000000E+00
  0.00000000E+00  0.00000000E+00  0.00000000E+00
  0.00000000E+00  0.00000000E+00  0.00000000E+00
  0.00000000E+00  0.00000000E+00  0.00000000E+00
  0.00000000E+00  0.00000000E+00  0.00000000E+00
  0.00000000E+00  0.00000000E+00  0.00000000E+00
  0.00000000E+00  0.00000000E+00  0.00000000E+00
  0.00000000E+00  0.00000000E+00  0.00000000E+00
  0.00000000E+00  0.00000000E+00  0.00000000E+00
  0.00000000E+00  0.00000000E+00  0.00000000E+00
  0.00000000E+00  0.00000000E+00  0.00000000E+00
  0.00000000E+00  0.00000000E+00  0.00000000E+00
  0.00000000E+00  0.00000000E+00  0.00000000E+00
  0.00000000E+00  0.00000000E+00  0.00000000E+00
  0.00000000E+00  0.00000000E+00  0.00000000E+00
  0.00000000E+00  0.00000000E+00  0.00000000E+00
  0.00000000E+00  0.00000000E+00  0.00000000E+00
  0.00000000E+00  0.00000000E+00  0.00000000E+00
  0.00000000E+00  0.00000000E+00  0.00000000E+00
  0.00000000E+00  0.00000000E+00  0.00000000E+00
  0.00000000E+00  0.00000000E+00  0.00000000E+00
  0.00000000E+00  0.00000000E+00  0.00000000E+00
  0.00000000E+00  0.00000000E+00  0.00000000E+00
  0.00000000E+00  0.00000000E+00  0.00000000E+00
  0.00000000E+00  0.00000000E+00  0.00000000E+00
  0.00000000E+00  0.00000000E+00  0.00000000E+00
  0.00000000E+00  0.00000000E+00  0.00000000E+00
  0.00000000E+00  0.00000000E+00  0.00000000E+00
  0.00000000E+00  0.00000000E+00  0.00000000E+00
  0.00000000E+00  0.00000000E+00  0.00000000E+00
  0.00000000E+00  0.00000000E+00  0.00000000E+00
  0.00000000E+00  0.00000000E+00  0.00000000E+00
  0.00000000E+00  0.00000000E+00  0.00000000E+00
  0.00000000E+00  0.00000000E+00  0.00000000E+00
  0.00000000E+00  0.00000000E+00  0.00000000E+00
  0.00000000E+00  0.00000000E+00  0.00000000E+00
  0.00000000E+00  0.00000000E+00  0.00000000E+00
  0.00000000E+00  0.00000000E+00  0.00000000E+00
  0.00000000E+00  0.00000000E+00  0.00000000E+00
  0.00000000E+00  0.00000000E+00  0.00000000E+00
  0.00000000E+00  0.00000000E+00  0.00000000E+00
  0.00000000E+00  0.00000000E+00  0.00000000E+00
  0.00000000E+00  0.00000000E+00  0.00000000E+00
  0.00000000E+00  0.00000000E+00  0.00000000E+00
  0.00000000E+00  0.00000000E+00  0.00000000E+00
  0.00000000E+00  0.00000000E+00  0.00000000E+00
  0.00000000E+00  0.00000000E+00  0.00000000E+00
  0.00000000E+00  0.00000000E+00  0.00000000E+00
  0.00000000E+00  0.00000000E+00  0.00000000E+00
  0.00000000E+00  0.00000000E+00  0.00000000E+00
  0.00000000E+00  0.00000000E+00  0.00000000E+00
  0.00000000E+00  0.00000000E+00  0.00000000E+00
  0.00000000E+00  0.00000000E+00  0.00000000E+00
  0.00000000E+00  0.00000000E+00  0.00000000E+00
  0.00000000E+00  0.00000000E+00  0.00000000E+00
  0.00000000E+00  0.00000000E+00  0.00000000E+00
  0.00000000E+00  0.00000000E+00  0.00000000E+00
  0.00000000E+00  0.00000000E+00  0.00000000E+00
  0.00000000E+00  0.00000000E+00  0.00000000E+00
  0.00000000E+00  0.00000000E+00  0.00000000E+00
  0.00000000E+00  0.00000000E+00  0.00000000E+00
  0.00000000E+00  0.00000000E+00  0.00000000E+00
  0.00000000E+00  0.00000000E+00  0.00000000E+00
  0.00000000E+00  0.00000000E+00  0.00000000E+00
  0.00000000E+00  0.00000000E+00  0.00000000E+00
  0.00000000E+00  0.00000000E+00  0.00000000E+00
  0.00000000E+00  0.00000000E+00  0.00000000E+00
  0.00000000E+00  0.00000000E+00  0.00000000E+00
  0.00000000E+00  0.00000000E+00  0.00000000E+00
  0.00000000E+00  0.00000000E+00  0.00000000E+00
  0.00000000E+00  0.00000000E+00  0.00000000E+00
  0.00000000E+00  0.00000000E+00  0.00000000E+00
  0.00000000E+00  0.00000000E+00  0.00000000E+00
  0.00000000E+00  0.00000000E+00  0.00000000E+00
  0.00000000E+00  0.00000000E+00  0.00000000E+00
  0.00000000E+00  0.00000000E+00  0.00000000E+00
  0.00000000E+00  0.00000000E+00  0.00000000E+00
  0.00000000E+00  0.00000000E+00  0.00000000E+00
  0.00000000E+00  0.00000000E+00  0.00000000E+00
  0.00000000E+00  0.00000000E+00  0.00000000E+00
  0.00000000E+00  0.00000000E+00  0.00000000E+00
  0.00000000E+00  0.00000000E+00  0.00000000E+00
  0.00000000E+00  0.00000000E+00  0.00000000E+00
  0.00000000E+00  0.00000000E+00  0.00000000E+00
  0.00000000E+00  0.00000000E+00  0.00000000E+00
  0.00000000E+00  0.00000000E+00  0.00000000E+00
  0.00000000E+00  0.00000000E+00  0.00000000E+00
  0.00000000E+00  0.00000000E+00  0.00000000E+00
  0.00000000E+00  0.00000000E+00  0.00000000E+00
  0.00000000E+00  0.00000000E+00  0.00000000E+00
  0.00000000E+00  0.00000000E+00  0.00000000E+00
  0.00000000E+00  0.00000000E+00  0.00000000E+00
  0.00000000E+00  0.00000000E+00  0.00000000E+00
  0.00000000E+00  0.00000000E+00  0.00000000E+00
  0.00000000E+00  0.00000000E+00  0.00000000E+00
  0.00000000E+00  0.00000000E+00  0.00000000E+00
  0.00000000E+00  0.00000000E+00  0.00000000E+00
  0.00000000E+00  0.00000000E+00  0.00000000E+00
  0.00000000E+00  0.00000000E+00  0.00000000E+00
  0.00000000E+00  0.00000000E+00  0.00000000E+00
  0.00000000E+00  0.00000000E+00  0.00000000E+00
  0.00000000E+00  0.00000000E+00  0.00000000E+00
  0.00000000E+00  0.00000000E+00  0.00000000E+00
  0.00000000E+00  0.00000000E+00  0.00000000E+00
  0.00000000E+00  0.00000000E+00  0.00000000E+00
  0.00000000E+00  0.00000000E+00  0.00000000E+00
  0.00000000E+00  0.00000000E+00  0.00000000E+00
  0.00000000E+00  0.00000000E+00  0.00000000E+00
  0.00000000E+00  0.00000000E+00  0.00000000E+00
  0.00000000E+00  0.00000000E+00  0.00000000E+00
  0.00000000E+00  0.00000000E+00  0.00000000E+00
  0.00000000E+00  0.00000000E+00  0.00000000E+00
  0.00000000E+00  0.00000000E+00  0.00000000E+00
  0.00000000E+00  0.00000000E+00  0.00000000E+00
  0.00000000E+00  0.00000000E+00  0.00000000E+00
  0.00000000E+00  0.00000000E+00  0.00000000E+00
  0.00000000E+00  0.00000000E+00  0.00000000E+00
  0.00000000E+00  0.00000000E+00  0.00000000E+00
  0.00000000E+00  0.00000000E+00  0.00000000E+00
  0.00000000E+00  0.00000000E+00  0.00000000E+00
  0.00000000E+00  0.00000000E+00  0.00000000E+00
  0.00000000E+00  0.00000000E+00  0.00000000E+00
  0.00000000E+00  0.00000000E+00  0.00000000E+00
  0.00000000E+00  0.00000000E+00  0.00000000E+00
  0.00000000E+00  0.00000000E+00  0.00000000E+00
  0.00000000E+00  0.00000000E+00  0.00000000E+00
  0.00000000E+00  0.00000000E+00  0.00000000E+00
  0.00000000E+00  0.00000000E+00  0.00000000E+00
  0.00000000E+00  0.00000000E+00  0.00000000E+00
  0.00000000E+00  0.00000000E+00  0.00000000E+00
  0.00000000E+00  0.00000000E+00  0.00000000E+00
  0.00000000E+00  0.00000000E+00  0.00000000E+00
  0.00000000E+00  0.00000000E+00  0.00000000E+00
  0.00000000E+00  0.00000000E+00  0.00000000E+00
  0.00000000E+00  0.00000000E+00  0.00000000E+00
  0.00000000E+00  0.00000000E+00  0.00000000E+00
  0.00000000E+00  0.00000000E+00  0.00000000E+00
  0.00000000E+00  0.00000000E+00  0.00000000E+00
  0.00000000E+00  0.00000000E+00  0.00000000E+00
  0.00000000E+00  0.00000000E+00  0.00000000E+00
  0.00000000E+00  0.00000000E+00  0.00000000E+00
  0.00000000E+00  0.00000000E+00  0.00000000E+00
  0.00000000E+00  0.00000000E+00  0.00000000E+00
  0.00000000E+00  0.00000000E+00  0.00000000E+00
  0.00000000E+00  0.00000000E+00  0.00000000E+00
  0.00000000E+00  0.00000000E+00  0.00000000E+00
  0.00000000E+00  0.00000000E+00  0.00000000E+00
  0.00000000E+00  0.00000000E+00  0.00000000E+00
  0.00000000E+00  0.00000000E+00  0.00000000E+00
  0.00000000E+00  0.00000000E+00  0.00000000E+00
  0.00000000E+00  0.00000000E+00  0.00000000E+00
  0.00000000E+00  0.00000000E+00  0.00000000E+00
  0.00000000E+00  0.00000000E+00  0.00000000E+00
  0.00000000E+00  0.00000000E+00  0.00000000E+00
  0.00000000E+00  0.00000000E+00  0.00000000E+00
