In18 Ga36 Cu48 Ag6 Se108                
   1.0000000000000000     
    15.8007169262074534    0.0010986487771890   -7.0915700662693109
    -3.1918141309111605   15.5016763871808578   -7.0862661422344919
    -0.0005444832796502   -0.0025821785740739   21.1722630119558310
   In   Ga   Cu   Ag   Se
    18    36    48     6   108
Direct
  0.8316067571569334  0.1669822189763721  0.0005330332921361
  0.1608035681134297  0.8312388150580006  0.3294647187256317
  0.5045412761438470  0.8268632581439306  0.3332198783886042
  0.8338052826248301  0.8321847092336085  0.3323351213529264
  0.1633990761178268  0.1709794273306215  0.3348873514684101
  0.1678095490469360  0.4983975257394704  0.6667138602346014
  0.1675548304025014  0.8309461654101966  0.6675618916544934
  0.5028468816857696  0.8294308476199816  0.6699361351709072
  0.1645097250615777  0.1718833382992813  0.6680375066020758
  0.5845563523836930  0.4168127742609471  0.1653512341666570
  0.5838197065321964  0.7477519250222073  0.1630903288465717
  0.2479674989952727  0.0836601853243479  0.1637536441539567
  0.5844712975344564  0.4174951705088858  0.5009400641612558
  0.2454553668394013  0.7406039890669973  0.4967270158917998
  0.5900375202377077  0.0923573475501982  0.5005744288213876
  0.9139011900634060  0.0868361021769033  0.4997831776305262
  0.2492529315117125  0.0830720687338129  0.8380205993751630
  0.9192745254520105  0.0828797017844352  0.8324995716330150
  0.1686591055517752  0.4966018237870173  0.0000405583935716
  0.5000287274656898  0.5008887465685987  0.9971360727613927
  0.8326889097778789  0.4993474447344894  0.0005236320961117
  0.1682971789951111  0.8318797564138976  0.9995051171486509
  0.5006658093898935  0.8341406847805573  0.9995743632650047
  0.8289003350929107  0.8351566595510747  0.0003484381620069
  0.1660538939113252  0.1704907139352798  0.0025968553429081
  0.5031188254458598  0.1653740658150440  0.0020357240671061
  0.1657275699955676  0.4940881340734862  0.3296033676053369
  0.4978241808720156  0.4969771697290213  0.3304891775923977
  0.8354922503505264  0.4996445010469373  0.3336229662020216
  0.5023439153887068  0.1712834445002045  0.3311351458356384
  0.8310643299276137  0.1678553851131994  0.3299609601583811
  0.5003904744229644  0.5026384413104239  0.6695499203402520
  0.8353899527008863  0.5017638612126945  0.6703328576830998
  0.8321538597160867  0.8279198208063221  0.6637497488675805
  0.4998397515578290  0.1726809117108772  0.6682012626644109
  0.8367883028491931  0.1733967380287282  0.6699734760440066
  0.2493216652739179  0.4140382951980257  0.1654976538936950
  0.9178341204051534  0.4188889670917462  0.1675051807621202
  0.2500613461879198  0.7458259570168337  0.1627559427527245
  0.9114747282042543  0.7470102400248422  0.1627687774434392
  0.5827268839618043  0.0828738839735479  0.1661749605272718
  0.9135372804628332  0.0828816966796921  0.1658655496922989
  0.2522975973173303  0.4190679986114390  0.4989130732096214
  0.9134589917512201  0.4145607887788429  0.4966813508023833
  0.5855677189462511  0.7391855262148539  0.4981992993899240
  0.9145754560261565  0.7483453223626952  0.4985687938288592
  0.2480456535774991  0.0866618099188941  0.5032201070267348
  0.2511269275423302  0.4216198836992291  0.8373369186766269
  0.5855334537044712  0.4222465997935814  0.8346681381113896
  0.9170507099333420  0.4167169447222463  0.8341333993783309
  0.2552438505544288  0.7528305760484173  0.8397957679781101
  0.5840471845716948  0.7478064334683481  0.8366709474744596
  0.9144201907113469  0.7513400691982000  0.8354042495102334
  0.5834230333104244  0.0842862880590474  0.8342876254988312
  0.0010185662007132  0.3384692257828590  0.0010310139606418
  0.3316025667039142  0.3365712069374922  0.0036669686713537
  0.6675809096156939  0.3325436929372643  0.9988210438012501
  0.3318616158372336  0.6652524987212374  0.9986724979022554
  0.6689271437772319  0.6646513953322923  0.9982283907883485
  0.0003532189429620  0.9981188582733438  0.0013822601752764
  0.3364008418337647  0.0016261636391093  0.0008768102905989
  0.6625904833960732  0.9985064297459800  0.9992990498274139
  0.9958311003394513  0.3339761453828771  0.3316287720989237
  0.3323969457616300  0.3350137940728004  0.3309847020525893
  0.6681113707752928  0.3321996912654654  0.3311052980210789
  0.9950062024537516  0.6600425287285816  0.3289999407144251
  0.3319315061262245  0.6554785908650302  0.3258872600662670
  0.6704445324177044  0.6621133456679331  0.3361954822586881
  0.9977084211593663  0.0004030084054421  0.3303457408265089
  0.6632327933984357  0.0042897886415147  0.3297650583231402
  0.9979297870830663  0.3401160089971142  0.6708239722258895
  0.3374143305218809  0.3391692229312468  0.6665172664480821
  0.6705417223275631  0.3384541295013008  0.6722560101873256
  0.3367323696738183  0.6628884809155267  0.6703635038806226
  0.6702137098387411  0.6664809615165908  0.6701739570250851
  0.9958682657890634  0.9966604091727547  0.6648849442911526
  0.3323199699346588  0.0034376605527839  0.6681229512619922
  0.0852665759634661  0.5805137370950746  0.1676662334402437
  0.4126372329057943  0.5798989193297430  0.1616291782985755
  0.7507094023993943  0.5769937142838160  0.1624148728208752
  0.0729006512574273  0.9122568596229073  0.1596606308809072
  0.4169343376362278  0.9163909859890822  0.1623788374820876
  0.7511532274984631  0.9189275389329410  0.1638587115850925
  0.0798656102788797  0.2522776575731029  0.1652383494064864
  0.4170933623492203  0.2491046462981927  0.1646457979845621
  0.7516971520508093  0.2507890648075062  0.1681815363742061
  0.0793014420841587  0.5757333378900569  0.4906624367481101
  0.4152685222091463  0.5806538723057741  0.4993175492109501
  0.7502764993050590  0.5783259204179529  0.4974028347691473
  0.0842151111589473  0.9165108927565058  0.5016635836627827
  0.7518813183210256  0.9159264172010921  0.5027351628073546
  0.0806796189811081  0.2538372951772914  0.4972850766556149
  0.4159980300201767  0.2576433453007638  0.5058570125819344
  0.7554314358333798  0.2556966183387459  0.5013570127114590
  0.0859844766254838  0.5851097818487503  0.8385335218793415
  0.4202999090745010  0.5863931194117384  0.8375961767535642
  0.7476721236839836  0.5827502629115031  0.8313947492939135
  0.0800511172939622  0.9178426572330736  0.8401137122559632
  0.4210139420299512  0.9163199363190557  0.8371750975645327
  0.7527284310039022  0.9098231998251336  0.8370781537254004
  0.0838289057306199  0.2547865385094568  0.8356270480892292
  0.7485566974011846  0.2588153014519960  0.8342371538863844
  0.9973560417518570  0.6674459016287315  0.9994715680301880
  0.3390990762087895  0.0017473527312077  0.3301724254273211
  0.0020917906708107  0.6651988700209444  0.6704195386405729
  0.6687776638342555  0.9984388437514511  0.6684512813519774
  0.4175259656690642  0.9126112072873127  0.4989454708829868
  0.4187546663195718  0.2495251299252814  0.8345895742176737
  0.1254039388153814  0.4586170022081006  0.0840400509339005
  0.4513085582852483  0.4600289814272926  0.0765031705582473
  0.7901256349420933  0.4543829046555956  0.0816014564788645
  0.1301143865878913  0.7981093709522469  0.0873432664402998
  0.4497225858389626  0.7918318035051186  0.0764474692087660
  0.7868995927372708  0.7911319969510799  0.0820784016113763
  0.1131705233953255  0.1288511708170148  0.0787565099005576
  0.4577029663071883  0.1252998630998405  0.0840142310663410
  0.7844648869194017  0.1215369791043841  0.0867918436925237
  0.1227627436031398  0.4537170599073264  0.4124398415250639
  0.4504612004843409  0.4599102583727088  0.4118332002599701
  0.7887516149525169  0.4560594322866791  0.4136164184983642
  0.1103507478119496  0.7875163194321644  0.4146151087079630
  0.4569852869051871  0.7753447581589512  0.4157638092757381
  0.7869391324626065  0.7892937842220604  0.4202020917275604
  0.1183002113125156  0.1244555661657785  0.4217624605441799
  0.4589322507382860  0.1422556596877627  0.4177634989082151
  0.7815992790812416  0.1300015316458598  0.4102628726353927
  0.1219242371847074  0.4600607871257054  0.7570806024671981
  0.4578073327785859  0.4633211193892990  0.7531629205293058
  0.7919568300177815  0.4609699439378474  0.7531051814429048
  0.1308044619176059  0.7993558822409241  0.7652350067201112
  0.4557447610194174  0.7871059772949849  0.7575183781621817
  0.7903106446945216  0.7909079822399718  0.7497618216650466
  0.1123654715520885  0.1247785361426637  0.7508600117234394
  0.4593018568379108  0.1182653596133392  0.7445169639296694
  0.7914497896180706  0.1392154939327668  0.7526909738331113
  0.2926032339458260  0.6223823615982980  0.0800928399532310
  0.6311260621463219  0.6167571031039074  0.0773776648390623
  0.9583914017120634  0.6211330861278626  0.0884889087225318
  0.2951425019684066  0.9525440167192158  0.0774540376807309
  0.6256527071309463  0.9586808490477736  0.0832434619388138
  0.9547708102163313  0.9583672383517126  0.0812807211481825
  0.2942740864623374  0.2914576141311471  0.0846205416679595
  0.6312186937601538  0.2848328133854636  0.0786682100599023
  0.9643693262300062  0.3000720940596722  0.0858372407739765
  0.2941750693683431  0.6133220973114604  0.4083998330124956
  0.6271415001178724  0.6168304275308572  0.4140200345580851
  0.9594644898586751  0.6244008602605646  0.4157081262436080
  0.2885724689475282  0.9664741760433557  0.4193354651133490
  0.6377594864148719  0.9592397231824350  0.4163053993494543
  0.9693648771316674  0.9604616161240642  0.4176536195357343
  0.3006542582011775  0.2996607150840305  0.4195584824109986
  0.6324094592579428  0.2883482107621944  0.4129864834764447
  0.9570902517539679  0.2916710732590104  0.4135698542491895
  0.3006159493331282  0.6313884874885147  0.7582440985316765
  0.6264525278508870  0.6258219443939979  0.7508761386717637
  0.9597622279899483  0.6242779449422571  0.7604480865920209
  0.3040534954336422  0.9594804783243731  0.7527785784555334
  0.6347147102916253  0.9610824463494296  0.7634596156767088
  0.9617378222531698  0.9472660144968046  0.7448318627508925
  0.2948940639756259  0.3056499354252793  0.7513011841951212
  0.6255787304183471  0.2967584205429645  0.7512870499466615
  0.9627334729509158  0.2953470755566343  0.7525278222244367
  0.2067792287906087  0.3694456235331600  0.2468184743300625
  0.5403859493663603  0.3699500648458809  0.2525032117307333
  0.8742287671375664  0.3741517597747404  0.2487491120472782
  0.2114614174364604  0.6995236684736383  0.2448793532071676
  0.5446994153074272  0.6905878690179037  0.2469381489537597
  0.8738785227111521  0.6974429763690608  0.2425679010010953
  0.1952118983521487  0.0329104509097746  0.2428602432663425
  0.5376487616531520  0.0403849121858784  0.2474874932605289
  0.8743759736469414  0.0412144782024839  0.2498905280224690
  0.2117752595451208  0.3672884048075815  0.5764079100760355
  0.5425165471981970  0.3749848945225409  0.5918827026592481
  0.8769392987040945  0.3782885129636568  0.5852214327169065
  0.2068575229343637  0.6901864141036285  0.5840897207508746
  0.5449469109158471  0.6953022569121998  0.5800278498492233
  0.8692512275895510  0.7039573770343495  0.5776210761546992
  0.2092011453315550  0.0361067783565616  0.5823756143588383
  0.5410630992060987  0.0514294869854410  0.5866899328734192
  0.8716186884894697  0.0409690831151863  0.5892023586597546
  0.2105064553469660  0.3723634171207308  0.9171787803998797
  0.5507016671571847  0.3817890206530734  0.9206655040143303
  0.8757955915357272  0.3755155128582430  0.9180326142267035
  0.2086859964934860  0.7057397645437931  0.9177841931829889
  0.5443156897044545  0.7068354512840216  0.9204516531761087
  0.8640961352818763  0.7105768864054482  0.9130682891719957
  0.2041496175988584  0.0385939019326997  0.9255089338385218
  0.5418138524929290  0.0405702789127105  0.9169364159530033
  0.8751775709903598  0.0304540075845026  0.9164811734914977
  0.0434058615553283  0.5425514906173703  0.2506641350294103
  0.3747565370687269  0.5372708289927814  0.2440942594308950
  0.7176833848869535  0.5489991511259689  0.2538090229318470
  0.0292006851953062  0.8763472834132315  0.2410924220540451
  0.3750889184904054  0.8676146951655710  0.2392099237865821
  0.7083538088465673  0.8870780255812249  0.2484590824831159
  0.0311319186142001  0.2132987911521340  0.2435366675987680
  0.3799369002480475  0.2175411986819356  0.2520968045739949
  0.7064668092975452  0.2098442278956227  0.2474129202118789
  0.0365516173656886  0.5363728003422423  0.5714895608854320
  0.3766704596851085  0.5446423155346451  0.5846738315533386
  0.7176807242539240  0.5503551445049553  0.5894709342652504
  0.0349520276120785  0.8772467698766988  0.5791373384750074
  0.3703435980790317  0.8781083590070651  0.5889591916061434
  0.7077243887386047  0.8659075005831696  0.5779193476588134
  0.0387369281108150  0.2256879242617487  0.5840613408173354
  0.3734801008122517  0.2127930949711825  0.5848488530944778
  0.7208909517204347  0.2256357017280308  0.5909660143858844
  0.0453425161841281  0.5359831003257938  0.9153929902591429
  0.3759270071319492  0.5462802643709139  0.9176372383710500
  0.7118093064428521  0.5449215623493586  0.9165724104256441
  0.0403733963735604  0.8750389629303967  0.9203945860262692
  0.3777889370500134  0.8793651497798010  0.9190922332304439
  0.7047686570242249  0.8765498260765696  0.9180710110573358
  0.0483845278224706  0.2196471341400397  0.9223876995079294
  0.3803723091814248  0.2160700298143254  0.9297218136495999
  0.7018576861508592  0.2128087468664148  0.9103346947566067

  0.00000000E+00  0.00000000E+00  0.00000000E+00
  0.00000000E+00  0.00000000E+00  0.00000000E+00
  0.00000000E+00  0.00000000E+00  0.00000000E+00
  0.00000000E+00  0.00000000E+00  0.00000000E+00
  0.00000000E+00  0.00000000E+00  0.00000000E+00
  0.00000000E+00  0.00000000E+00  0.00000000E+00
  0.00000000E+00  0.00000000E+00  0.00000000E+00
  0.00000000E+00  0.00000000E+00  0.00000000E+00
  0.00000000E+00  0.00000000E+00  0.00000000E+00
  0.00000000E+00  0.00000000E+00  0.00000000E+00
  0.00000000E+00  0.00000000E+00  0.00000000E+00
  0.00000000E+00  0.00000000E+00  0.00000000E+00
  0.00000000E+00  0.00000000E+00  0.00000000E+00
  0.00000000E+00  0.00000000E+00  0.00000000E+00
  0.00000000E+00  0.00000000E+00  0.00000000E+00
  0.00000000E+00  0.00000000E+00  0.00000000E+00
  0.00000000E+00  0.00000000E+00  0.00000000E+00
  0.00000000E+00  0.00000000E+00  0.00000000E+00
  0.00000000E+00  0.00000000E+00  0.00000000E+00
  0.00000000E+00  0.00000000E+00  0.00000000E+00
  0.00000000E+00  0.00000000E+00  0.00000000E+00
  0.00000000E+00  0.00000000E+00  0.00000000E+00
  0.00000000E+00  0.00000000E+00  0.00000000E+00
  0.00000000E+00  0.00000000E+00  0.00000000E+00
  0.00000000E+00  0.00000000E+00  0.00000000E+00
  0.00000000E+00  0.00000000E+00  0.00000000E+00
  0.00000000E+00  0.00000000E+00  0.00000000E+00
  0.00000000E+00  0.00000000E+00  0.00000000E+00
  0.00000000E+00  0.00000000E+00  0.00000000E+00
  0.00000000E+00  0.00000000E+00  0.00000000E+00
  0.00000000E+00  0.00000000E+00  0.00000000E+00
  0.00000000E+00  0.00000000E+00  0.00000000E+00
  0.00000000E+00  0.00000000E+00  0.00000000E+00
  0.00000000E+00  0.00000000E+00  0.00000000E+00
  0.00000000E+00  0.00000000E+00  0.00000000E+00
  0.00000000E+00  0.00000000E+00  0.00000000E+00
  0.00000000E+00  0.00000000E+00  0.00000000E+00
  0.00000000E+00  0.00000000E+00  0.00000000E+00
  0.00000000E+00  0.00000000E+00  0.00000000E+00
  0.00000000E+00  0.00000000E+00  0.00000000E+00
  0.00000000E+00  0.00000000E+00  0.00000000E+00
  0.00000000E+00  0.00000000E+00  0.00000000E+00
  0.00000000E+00  0.00000000E+00  0.00000000E+00
  0.00000000E+00  0.00000000E+00  0.00000000E+00
  0.00000000E+00  0.00000000E+00  0.00000000E+00
  0.00000000E+00  0.00000000E+00  0.00000000E+00
  0.00000000E+00  0.00000000E+00  0.00000000E+00
  0.00000000E+00  0.00000000E+00  0.00000000E+00
  0.00000000E+00  0.00000000E+00  0.00000000E+00
  0.00000000E+00  0.00000000E+00  0.00000000E+00
  0.00000000E+00  0.00000000E+00  0.00000000E+00
  0.00000000E+00  0.00000000E+00  0.00000000E+00
  0.00000000E+00  0.00000000E+00  0.00000000E+00
  0.00000000E+00  0.00000000E+00  0.00000000E+00
  0.00000000E+00  0.00000000E+00  0.00000000E+00
  0.00000000E+00  0.00000000E+00  0.00000000E+00
  0.00000000E+00  0.00000000E+00  0.00000000E+00
  0.00000000E+00  0.00000000E+00  0.00000000E+00
  0.00000000E+00  0.00000000E+00  0.00000000E+00
  0.00000000E+00  0.00000000E+00  0.00000000E+00
  0.00000000E+00  0.00000000E+00  0.00000000E+00
  0.00000000E+00  0.00000000E+00  0.00000000E+00
  0.00000000E+00  0.00000000E+00  0.00000000E+00
  0.00000000E+00  0.00000000E+00  0.00000000E+00
  0.00000000E+00  0.00000000E+00  0.00000000E+00
  0.00000000E+00  0.00000000E+00  0.00000000E+00
  0.00000000E+00  0.00000000E+00  0.00000000E+00
  0.00000000E+00  0.00000000E+00  0.00000000E+00
  0.00000000E+00  0.00000000E+00  0.00000000E+00
  0.00000000E+00  0.00000000E+00  0.00000000E+00
  0.00000000E+00  0.00000000E+00  0.00000000E+00
  0.00000000E+00  0.00000000E+00  0.00000000E+00
  0.00000000E+00  0.00000000E+00  0.00000000E+00
  0.00000000E+00  0.00000000E+00  0.00000000E+00
  0.00000000E+00  0.00000000E+00  0.00000000E+00
  0.00000000E+00  0.00000000E+00  0.00000000E+00
  0.00000000E+00  0.00000000E+00  0.00000000E+00
  0.00000000E+00  0.00000000E+00  0.00000000E+00
  0.00000000E+00  0.00000000E+00  0.00000000E+00
  0.00000000E+00  0.00000000E+00  0.00000000E+00
  0.00000000E+00  0.00000000E+00  0.00000000E+00
  0.00000000E+00  0.00000000E+00  0.00000000E+00
  0.00000000E+00  0.00000000E+00  0.00000000E+00
  0.00000000E+00  0.00000000E+00  0.00000000E+00
  0.00000000E+00  0.00000000E+00  0.00000000E+00
  0.00000000E+00  0.00000000E+00  0.00000000E+00
  0.00000000E+00  0.00000000E+00  0.00000000E+00
  0.00000000E+00  0.00000000E+00  0.00000000E+00
  0.00000000E+00  0.00000000E+00  0.00000000E+00
  0.00000000E+00  0.00000000E+00  0.00000000E+00
  0.00000000E+00  0.00000000E+00  0.00000000E+00
  0.00000000E+00  0.00000000E+00  0.00000000E+00
  0.00000000E+00  0.00000000E+00  0.00000000E+00
  0.00000000E+00  0.00000000E+00  0.00000000E+00
  0.00000000E+00  0.00000000E+00  0.00000000E+00
  0.00000000E+00  0.00000000E+00  0.00000000E+00
  0.00000000E+00  0.00000000E+00  0.00000000E+00
  0.00000000E+00  0.00000000E+00  0.00000000E+00
  0.00000000E+00  0.00000000E+00  0.00000000E+00
  0.00000000E+00  0.00000000E+00  0.00000000E+00
  0.00000000E+00  0.00000000E+00  0.00000000E+00
  0.00000000E+00  0.00000000E+00  0.00000000E+00
  0.00000000E+00  0.00000000E+00  0.00000000E+00
  0.00000000E+00  0.00000000E+00  0.00000000E+00
  0.00000000E+00  0.00000000E+00  0.00000000E+00
  0.00000000E+00  0.00000000E+00  0.00000000E+00
  0.00000000E+00  0.00000000E+00  0.00000000E+00
  0.00000000E+00  0.00000000E+00  0.00000000E+00
  0.00000000E+00  0.00000000E+00  0.00000000E+00
  0.00000000E+00  0.00000000E+00  0.00000000E+00
  0.00000000E+00  0.00000000E+00  0.00000000E+00
  0.00000000E+00  0.00000000E+00  0.00000000E+00
  0.00000000E+00  0.00000000E+00  0.00000000E+00
  0.00000000E+00  0.00000000E+00  0.00000000E+00
  0.00000000E+00  0.00000000E+00  0.00000000E+00
  0.00000000E+00  0.00000000E+00  0.00000000E+00
  0.00000000E+00  0.00000000E+00  0.00000000E+00
  0.00000000E+00  0.00000000E+00  0.00000000E+00
  0.00000000E+00  0.00000000E+00  0.00000000E+00
  0.00000000E+00  0.00000000E+00  0.00000000E+00
  0.00000000E+00  0.00000000E+00  0.00000000E+00
  0.00000000E+00  0.00000000E+00  0.00000000E+00
  0.00000000E+00  0.00000000E+00  0.00000000E+00
  0.00000000E+00  0.00000000E+00  0.00000000E+00
  0.00000000E+00  0.00000000E+00  0.00000000E+00
  0.00000000E+00  0.00000000E+00  0.00000000E+00
  0.00000000E+00  0.00000000E+00  0.00000000E+00
  0.00000000E+00  0.00000000E+00  0.00000000E+00
  0.00000000E+00  0.00000000E+00  0.00000000E+00
  0.00000000E+00  0.00000000E+00  0.00000000E+00
  0.00000000E+00  0.00000000E+00  0.00000000E+00
  0.00000000E+00  0.00000000E+00  0.00000000E+00
  0.00000000E+00  0.00000000E+00  0.00000000E+00
  0.00000000E+00  0.00000000E+00  0.00000000E+00
  0.00000000E+00  0.00000000E+00  0.00000000E+00
  0.00000000E+00  0.00000000E+00  0.00000000E+00
  0.00000000E+00  0.00000000E+00  0.00000000E+00
  0.00000000E+00  0.00000000E+00  0.00000000E+00
  0.00000000E+00  0.00000000E+00  0.00000000E+00
  0.00000000E+00  0.00000000E+00  0.00000000E+00
  0.00000000E+00  0.00000000E+00  0.00000000E+00
  0.00000000E+00  0.00000000E+00  0.00000000E+00
  0.00000000E+00  0.00000000E+00  0.00000000E+00
  0.00000000E+00  0.00000000E+00  0.00000000E+00
  0.00000000E+00  0.00000000E+00  0.00000000E+00
  0.00000000E+00  0.00000000E+00  0.00000000E+00
  0.00000000E+00  0.00000000E+00  0.00000000E+00
  0.00000000E+00  0.00000000E+00  0.00000000E+00
  0.00000000E+00  0.00000000E+00  0.00000000E+00
  0.00000000E+00  0.00000000E+00  0.00000000E+00
  0.00000000E+00  0.00000000E+00  0.00000000E+00
  0.00000000E+00  0.00000000E+00  0.00000000E+00
  0.00000000E+00  0.00000000E+00  0.00000000E+00
  0.00000000E+00  0.00000000E+00  0.00000000E+00
  0.00000000E+00  0.00000000E+00  0.00000000E+00
  0.00000000E+00  0.00000000E+00  0.00000000E+00
  0.00000000E+00  0.00000000E+00  0.00000000E+00
  0.00000000E+00  0.00000000E+00  0.00000000E+00
  0.00000000E+00  0.00000000E+00  0.00000000E+00
  0.00000000E+00  0.00000000E+00  0.00000000E+00
  0.00000000E+00  0.00000000E+00  0.00000000E+00
  0.00000000E+00  0.00000000E+00  0.00000000E+00
  0.00000000E+00  0.00000000E+00  0.00000000E+00
  0.00000000E+00  0.00000000E+00  0.00000000E+00
  0.00000000E+00  0.00000000E+00  0.00000000E+00
  0.00000000E+00  0.00000000E+00  0.00000000E+00
  0.00000000E+00  0.00000000E+00  0.00000000E+00
  0.00000000E+00  0.00000000E+00  0.00000000E+00
  0.00000000E+00  0.00000000E+00  0.00000000E+00
  0.00000000E+00  0.00000000E+00  0.00000000E+00
  0.00000000E+00  0.00000000E+00  0.00000000E+00
  0.00000000E+00  0.00000000E+00  0.00000000E+00
  0.00000000E+00  0.00000000E+00  0.00000000E+00
  0.00000000E+00  0.00000000E+00  0.00000000E+00
  0.00000000E+00  0.00000000E+00  0.00000000E+00
  0.00000000E+00  0.00000000E+00  0.00000000E+00
  0.00000000E+00  0.00000000E+00  0.00000000E+00
  0.00000000E+00  0.00000000E+00  0.00000000E+00
  0.00000000E+00  0.00000000E+00  0.00000000E+00
  0.00000000E+00  0.00000000E+00  0.00000000E+00
  0.00000000E+00  0.00000000E+00  0.00000000E+00
  0.00000000E+00  0.00000000E+00  0.00000000E+00
  0.00000000E+00  0.00000000E+00  0.00000000E+00
  0.00000000E+00  0.00000000E+00  0.00000000E+00
  0.00000000E+00  0.00000000E+00  0.00000000E+00
  0.00000000E+00  0.00000000E+00  0.00000000E+00
  0.00000000E+00  0.00000000E+00  0.00000000E+00
  0.00000000E+00  0.00000000E+00  0.00000000E+00
  0.00000000E+00  0.00000000E+00  0.00000000E+00
  0.00000000E+00  0.00000000E+00  0.00000000E+00
  0.00000000E+00  0.00000000E+00  0.00000000E+00
  0.00000000E+00  0.00000000E+00  0.00000000E+00
  0.00000000E+00  0.00000000E+00  0.00000000E+00
  0.00000000E+00  0.00000000E+00  0.00000000E+00
  0.00000000E+00  0.00000000E+00  0.00000000E+00
  0.00000000E+00  0.00000000E+00  0.00000000E+00
  0.00000000E+00  0.00000000E+00  0.00000000E+00
  0.00000000E+00  0.00000000E+00  0.00000000E+00
  0.00000000E+00  0.00000000E+00  0.00000000E+00
  0.00000000E+00  0.00000000E+00  0.00000000E+00
  0.00000000E+00  0.00000000E+00  0.00000000E+00
  0.00000000E+00  0.00000000E+00  0.00000000E+00
  0.00000000E+00  0.00000000E+00  0.00000000E+00
  0.00000000E+00  0.00000000E+00  0.00000000E+00
  0.00000000E+00  0.00000000E+00  0.00000000E+00
  0.00000000E+00  0.00000000E+00  0.00000000E+00
  0.00000000E+00  0.00000000E+00  0.00000000E+00
  0.00000000E+00  0.00000000E+00  0.00000000E+00
  0.00000000E+00  0.00000000E+00  0.00000000E+00
  0.00000000E+00  0.00000000E+00  0.00000000E+00
  0.00000000E+00  0.00000000E+00  0.00000000E+00
  0.00000000E+00  0.00000000E+00  0.00000000E+00
  0.00000000E+00  0.00000000E+00  0.00000000E+00
  0.00000000E+00  0.00000000E+00  0.00000000E+00
  0.00000000E+00  0.00000000E+00  0.00000000E+00
  0.00000000E+00  0.00000000E+00  0.00000000E+00
