In18 Ga36 Ag54 Se108                    
   1.0000000000000000     
    16.4865148981305367    0.0215573292582016   -7.8701334900303923
    -3.7808858375009819   16.0504134136720786   -7.8795749584216068
     0.1899488485362004    0.2427796276897171   21.6066492313886940
   In   Ga   Ag   Se
    18    36    54   108
Direct
  0.8331453427750120  0.4994587178258101  0.9998685159950966
  0.1685757112959578  0.8302137782105561  0.9973684436656214
  0.4990779398526257  0.8330916449695565  0.9996477420041217
  0.1676807341672202  0.8374119641208750  0.3334613585659056
  0.1698583125649904  0.1658577990259857  0.3358937608144075
  0.5034698958650310  0.8356435585620616  0.6711080987042095
  0.1656781291389890  0.1657566744458308  0.6668724579230201
  0.2513365931355267  0.4138141407375215  0.1656391497862231
  0.9145797928125603  0.4158519701011230  0.1687626821924226
  0.9134072543705756  0.7545170452241052  0.1675897252490373
  0.2548353535129593  0.0851873340142504  0.1659738582999495
  0.9122161898378991  0.0838669977047104  0.1649034580023567
  0.2510509338669422  0.4211172432003352  0.5028175411330480
  0.2464292148056799  0.7485294794670949  0.5003747614545091
  0.5867325311677121  0.7484475533356516  0.4984242520505333
  0.5859056192118217  0.0824962711715003  0.5001976459863400
  0.5795821179005003  0.4171985533480438  0.8304228008593881
  0.9185483515392363  0.4144239049776175  0.8307325571421558
  0.1685771515677175  0.5029373137078466  0.9994614116478857
  0.4987595558106435  0.4996606100718424  0.0019536674330283
  0.8291152501253833  0.8315223206571147  0.9950515171818353
  0.1654903429556285  0.1626655641038610  0.9950454390377956
  0.4990196333841723  0.1657491960595934  0.9992758499384067
  0.8303384948289434  0.1661478958994138  0.9952473307677963
  0.1657431705064738  0.4995404744146867  0.3330930914344137
  0.5059850651281366  0.4980895773889173  0.3325174780423765
  0.8302209481428662  0.4980779733876943  0.3361204607659118
  0.4996661057388465  0.8302041956566910  0.3297326822421951
  0.8307368085201219  0.8333118694875949  0.3361743400890944
  0.5036381334072644  0.1724786290109037  0.3348031143074692
  0.8299035477231058  0.1677096534355442  0.3357858648889831
  0.1639348513086034  0.4990354863005422  0.6682125739134293
  0.5011879387643035  0.5044598834806990  0.6656814255879979
  0.8317924780064132  0.5014157725063484  0.6650322726402109
  0.1633743339345912  0.8321535039996633  0.6680698632541180
  0.8361795811792092  0.8359425989276019  0.6691586239807421
  0.4998572415598446  0.1640996300219797  0.6680153925002585
  0.8389577273399738  0.1658978422073503  0.6666731238499537
  0.5821954943976095  0.4146399002786083  0.1659279432447889
  0.2531690034937668  0.7471222672089155  0.1666014872335211
  0.5829948262986449  0.7485294206730444  0.1682861051370210
  0.5856786153998144  0.0867315234727286  0.1686375936597457
  0.5856002468951544  0.4176434525222135  0.5002587584205926
  0.9155956531863154  0.4170654986492366  0.5010495101442558
  0.9153118348174871  0.7498687023365775  0.5010770377170246
  0.2539979911886476  0.0843007117278631  0.5036683363286585
  0.9109843516600051  0.0826130050528207  0.4980254301819755
  0.2521738625773153  0.4197975894458139  0.8355602071617128
  0.2469287579685613  0.7464950260612042  0.8283055846850402
  0.5831566428602173  0.7476759670979334  0.8334464916816202
  0.9142476499964687  0.7498303014924801  0.8309530707720540
  0.2486436932499601  0.0798697959652301  0.8336591990133826
  0.5846228759549561  0.0873936224135576  0.8362239413779378
  0.9181236740311007  0.0833325759894166  0.8324731395789371
  0.0017834004837169  0.3284263141901462  0.9964835429702816
  0.3337430586535817  0.3319886394472036  0.9963312435769964
  0.6654826080967311  0.3312867580305436  0.0023375744875480
  0.9981087805757483  0.6694035848260640  0.9991914892791982
  0.3358659852382004  0.6648739265336729  0.0004072216873965
  0.6644064087411863  0.6647870123681230  0.0016187680654625
  0.9952619344841267  0.9991307212459120  0.9940062897229538
  0.3360589704477306  0.0009999419761257  0.9959734641572666
  0.6629364766439068  0.9974632562877943  0.9958953408365403
  0.0010904579614461  0.3347618236657581  0.3391410178593333
  0.3366900857372386  0.3417923769655147  0.3380863431709287
  0.6658487285630770  0.3346061066800203  0.3342898204982205
  0.9953994830708552  0.6608001246886843  0.3344140041599957
  0.3355989111521964  0.6649099752103993  0.3328958090405010
  0.6702389830659712  0.6654414984116244  0.3290190633256529
  0.0013066930501964  0.0081224029457303  0.3445766381441047
  0.3376336805716988  0.9998982472169757  0.3305781947527748
  0.6644254056920786  0.9971117193313574  0.3279125828389979
  0.9997157104809844  0.3350154794255076  0.6631261732878428
  0.3307298998329813  0.3309010700980792  0.6660849270094573
  0.6618331771434143  0.3331376987548609  0.6621006807783445
  0.9972086720010722  0.6638822078953552  0.6650914504779450
  0.3364798538386466  0.6699315715737981  0.6732977026403688
  0.6706273051168026  0.6652615713490206  0.6675677128225530
  0.9978651615128911  0.9970055045078610  0.6643602142998333
  0.3376823450667530  0.0038414409982508  0.6724358733727769
  0.6721373565473101  0.0067469031278691  0.6742718521621356
  0.0886419877212319  0.5808434311816271  0.1667075695041547
  0.4181959409289604  0.5820628895882152  0.1667526443873015
  0.7452053782031243  0.5899558758752903  0.1721955810958349
  0.0767980693143997  0.9112965437826688  0.1581685433993982
  0.4235771946896421  0.9204989928839353  0.1741197408615207
  0.7503167958328802  0.9194730519589811  0.1704981769611109
  0.0806747267847001  0.2464530344552003  0.1608789146673217
  0.4178736904997464  0.2459518632888802  0.1628686317034678
  0.7467942333349953  0.2496404628343001  0.1660519711846149
  0.0785508968455062  0.5864028647028903  0.5030135716079940
  0.4163247729729704  0.5782973881096964  0.4945305483876083
  0.7536195049793477  0.5856823541374396  0.5032238899954109
  0.0792106755191497  0.9193897760057155  0.5014907671801083
  0.4178864529439963  0.9168360368492969  0.4985900836209609
  0.7498779656517058  0.9157889631725311  0.5012624459109247
  0.0785510438272397  0.2535290186750387  0.5005017028003067
  0.4235819819373958  0.2493488370975072  0.5071725157537514
  0.7537804657769200  0.2522572444255999  0.5028750180024844
  0.0801705570102627  0.5817107174950706  0.8287966354864622
  0.4127302219793165  0.5809534791051263  0.8299379900717838
  0.7519751707685813  0.5857240684020866  0.8285242237754886
  0.0823838731351927  0.9149966423867468  0.8308385278753576
  0.4134701329153714  0.9232244349614191  0.8328376003554041
  0.7538321334559583  0.9150654322593255  0.8353036934930032
  0.0894227841812381  0.2528704166301594  0.8373433129784829
  0.4176987392556626  0.2511985600324280  0.8388394770111489
  0.7443309117269976  0.2419732609747385  0.8268947242755829
  0.1291385504267524  0.4571676592322120  0.0756189588454319
  0.4668921511256698  0.4569102456695191  0.0838914415376664
  0.7899899329800490  0.4622607051505554  0.0865977329201328
  0.1360406086688570  0.7882503150004325  0.0874288062972113
  0.4667834236973647  0.7908251599118898  0.0900219384191630
  0.7903283738393299  0.7951599508688645  0.0766348319574846
  0.1280616474256604  0.1237545506281492  0.0754796656449130
  0.4692730059926191  0.1231639538595175  0.0821610307774705
  0.7905289007193019  0.1270255856544651  0.0748104019966505
  0.1269875264427398  0.4643731447136119  0.4149977066482151
  0.4732548962154581  0.4594852423202909  0.4162547231859790
  0.7996658123446565  0.4584697810382892  0.4198795980187953
  0.1216905963043899  0.7913239535141727  0.4144591100248576
  0.4632457084569026  0.7934242021564657  0.4118300370105459
  0.8000642367931832  0.7916852809505173  0.4191387608360273
  0.1364336747542865  0.1281975158437376  0.4279596048608667
  0.4647213965178878  0.1286475535376965  0.4123819599510270
  0.7956744591324707  0.1242263787924855  0.4161556847443748
  0.1340250057930419  0.4569470490768950  0.7510731674711764
  0.4578952377068859  0.4592047412584890  0.7397973602897423
  0.7944777094518329  0.4585005169391536  0.7431512722915983
  0.1301896233944291  0.7889033861783190  0.7488330168163415
  0.4673534460068467  0.7942063959402574  0.7596477896101632
  0.8002396094054376  0.7916307973421723  0.7486643719550159
  0.1317414935789643  0.1211582121130590  0.7549213939611263
  0.4688561776329934  0.1285999061410479  0.7543715947340175
  0.8062752284792580  0.1266638092172627  0.7501097865794435
  0.2861112789248494  0.6241014930693183  0.0838084315601435
  0.6131681076683506  0.6247045792709045  0.0835274800474295
  0.9590870079888063  0.6273982067196968  0.0865229301400134
  0.2956808016894854  0.9570650223170531  0.0817406432696188
  0.6220818669269903  0.9658547756218425  0.0883402773982240
  0.9462033877385778  0.9520514611895834  0.0743904888049940
  0.2841208985931587  0.2816356899996606  0.0753028714992965
  0.6132104263793252  0.2899864144640674  0.0830590502734552
  0.9480129828442827  0.2856099051369867  0.0766752913028697
  0.2840677319891967  0.6183842142095415  0.4119333102041267
  0.6226527860364683  0.6178899798234383  0.4102571268728070
  0.9444388024737691  0.6232838714836078  0.4178067380437085
  0.2918881833471332  0.9679065166697853  0.4209687864334626
  0.6179227437386174  0.9495791338706070  0.4098467850901528
  0.9448039234056651  0.9581775717815972  0.4183504130825852
  0.2957915256355435  0.2938205887328067  0.4214110995017677
  0.6205381468227245  0.2940501960398407  0.4203324221896452
  0.9451181581442114  0.2917371899292718  0.4174706634996070
  0.2793553983487200  0.6218352856951981  0.7478010295999695
  0.6167894647142589  0.6268257629030032  0.7495416888513020
  0.9470770242617519  0.6250851643335764  0.7492602461462425
  0.2778890631406270  0.9570291464484555  0.7472723847133693
  0.6255747806716840  0.9681945694507803  0.7596703296752736
  0.9507461254063827  0.9590647525625826  0.7508518717392150
  0.2891315350733166  0.2979756493522601  0.7569404200461420
  0.6156236232901691  0.2847500835455321  0.7432003554532969
  0.9569071356688212  0.2845125201583514  0.7446453937162829
  0.2043796938203926  0.3801949769628692  0.2530502130786658
  0.5411608861562129  0.3801894129485248  0.2472582034192357
  0.8721106846552686  0.3813594361829473  0.2576935461322449
  0.2124801780650998  0.7125677715788825  0.2473345386615335
  0.5424976657374998  0.7143587641772982  0.2498761451313598
  0.8725120097869947  0.7175999866618241  0.2567828887895871
  0.2063680950540743  0.0390869033974823  0.2452340933803683
  0.5434291971545093  0.0557004777408778  0.2515384022080625
  0.8740691416676825  0.0524555227001215  0.2582128813537921
  0.2045987504885005  0.3829501019463279  0.5880121585105726
  0.5411374873311630  0.3879782545773480  0.5824711251060535
  0.8751114877629718  0.3866200780383693  0.5845351530234382
  0.2063970937781647  0.7151357072037996  0.5912142638287392
  0.5426740164083554  0.7088183846812584  0.5831674779060521
  0.8753361889510458  0.7196228104502609  0.5854068587267705
  0.2115950741632275  0.0432593902160008  0.5804671745502432
  0.5423887041675215  0.0483433005160308  0.5892238579469620
  0.8740476938376460  0.0481117988118598  0.5815392381888529
  0.2105087200488498  0.3871184016935061  0.9178038250907079
  0.5408426352931102  0.3842892726848248  0.9224840516178077
  0.8724204510559161  0.3717419224680256  0.9130695046145476
  0.2111410479968825  0.7068492256605410  0.9090384321106839
  0.5417167555726436  0.7088531323064160  0.9116696961742576
  0.8748123299663746  0.7180760598678759  0.9150923939644429
  0.2074059738171954  0.0462520049919277  0.9150636158158676
  0.5405625491295183  0.0521318322809705  0.9159709948232901
  0.8728493414961633  0.0519196970635036  0.9133716599910713
  0.0473055160806410  0.5384353508207340  0.2530399398097316
  0.3843219547694190  0.5359720215450494  0.2548999343681189
  0.7074603302965627  0.5277051418971013  0.2493541958985190
  0.0396924045712694  0.8815717179736566  0.2523575302304337
  0.3760052131576259  0.8638740923332620  0.2492411217844648
  0.7077093838027935  0.8628049943081848  0.2491580591474332
  0.0422690866120021  0.2080985082541886  0.2510136699182652
  0.3837943417350118  0.2113568592010608  0.2565301622987306
  0.7086760249851025  0.2019174373443491  0.2520489116237030
  0.0402018716552774  0.5308657207659166  0.5842070487320115
  0.3820905322427208  0.5443868908146214  0.5883063380178655
  0.7088638226637229  0.5331727934600892  0.5822271259865417
  0.0403088538861667  0.8637429913579098  0.5831096344086788
  0.3751517129071900  0.8737029767306481  0.5836286516509190
  0.7157691362140497  0.8747371165078874  0.5915327478242816
  0.0325154111981476  0.1978445157621849  0.5771326678754889
  0.3773435086963133  0.1999443004139891  0.5873363323218683
  0.7180939146472340  0.2055019514981069  0.5898530074722927
  0.0480051795977445  0.5403708592530307  0.9202991251918036
  0.3771921805901144  0.5331577392562536  0.9173186904376891
  0.7084120174962578  0.5417997635054093  0.9133654753916218
  0.0353996615582588  0.8657336024444291  0.9107742030912434
  0.3666716983366243  0.8640544046621770  0.9080054599840750
  0.7054516586753934  0.8646195884813395  0.9139442829425306
  0.0430695630108886  0.1968230915771372  0.9140170304939872
  0.3730306027405135  0.1949642230655897  0.9158510540696341
  0.7071638326072929  0.2027394805468177  0.9166362608995371

  0.00000000E+00  0.00000000E+00  0.00000000E+00
  0.00000000E+00  0.00000000E+00  0.00000000E+00
  0.00000000E+00  0.00000000E+00  0.00000000E+00
  0.00000000E+00  0.00000000E+00  0.00000000E+00
  0.00000000E+00  0.00000000E+00  0.00000000E+00
  0.00000000E+00  0.00000000E+00  0.00000000E+00
  0.00000000E+00  0.00000000E+00  0.00000000E+00
  0.00000000E+00  0.00000000E+00  0.00000000E+00
  0.00000000E+00  0.00000000E+00  0.00000000E+00
  0.00000000E+00  0.00000000E+00  0.00000000E+00
  0.00000000E+00  0.00000000E+00  0.00000000E+00
  0.00000000E+00  0.00000000E+00  0.00000000E+00
  0.00000000E+00  0.00000000E+00  0.00000000E+00
  0.00000000E+00  0.00000000E+00  0.00000000E+00
  0.00000000E+00  0.00000000E+00  0.00000000E+00
  0.00000000E+00  0.00000000E+00  0.00000000E+00
  0.00000000E+00  0.00000000E+00  0.00000000E+00
  0.00000000E+00  0.00000000E+00  0.00000000E+00
  0.00000000E+00  0.00000000E+00  0.00000000E+00
  0.00000000E+00  0.00000000E+00  0.00000000E+00
  0.00000000E+00  0.00000000E+00  0.00000000E+00
  0.00000000E+00  0.00000000E+00  0.00000000E+00
  0.00000000E+00  0.00000000E+00  0.00000000E+00
  0.00000000E+00  0.00000000E+00  0.00000000E+00
  0.00000000E+00  0.00000000E+00  0.00000000E+00
  0.00000000E+00  0.00000000E+00  0.00000000E+00
  0.00000000E+00  0.00000000E+00  0.00000000E+00
  0.00000000E+00  0.00000000E+00  0.00000000E+00
  0.00000000E+00  0.00000000E+00  0.00000000E+00
  0.00000000E+00  0.00000000E+00  0.00000000E+00
  0.00000000E+00  0.00000000E+00  0.00000000E+00
  0.00000000E+00  0.00000000E+00  0.00000000E+00
  0.00000000E+00  0.00000000E+00  0.00000000E+00
  0.00000000E+00  0.00000000E+00  0.00000000E+00
  0.00000000E+00  0.00000000E+00  0.00000000E+00
  0.00000000E+00  0.00000000E+00  0.00000000E+00
  0.00000000E+00  0.00000000E+00  0.00000000E+00
  0.00000000E+00  0.00000000E+00  0.00000000E+00
  0.00000000E+00  0.00000000E+00  0.00000000E+00
  0.00000000E+00  0.00000000E+00  0.00000000E+00
  0.00000000E+00  0.00000000E+00  0.00000000E+00
  0.00000000E+00  0.00000000E+00  0.00000000E+00
  0.00000000E+00  0.00000000E+00  0.00000000E+00
  0.00000000E+00  0.00000000E+00  0.00000000E+00
  0.00000000E+00  0.00000000E+00  0.00000000E+00
  0.00000000E+00  0.00000000E+00  0.00000000E+00
  0.00000000E+00  0.00000000E+00  0.00000000E+00
  0.00000000E+00  0.00000000E+00  0.00000000E+00
  0.00000000E+00  0.00000000E+00  0.00000000E+00
  0.00000000E+00  0.00000000E+00  0.00000000E+00
  0.00000000E+00  0.00000000E+00  0.00000000E+00
  0.00000000E+00  0.00000000E+00  0.00000000E+00
  0.00000000E+00  0.00000000E+00  0.00000000E+00
  0.00000000E+00  0.00000000E+00  0.00000000E+00
  0.00000000E+00  0.00000000E+00  0.00000000E+00
  0.00000000E+00  0.00000000E+00  0.00000000E+00
  0.00000000E+00  0.00000000E+00  0.00000000E+00
  0.00000000E+00  0.00000000E+00  0.00000000E+00
  0.00000000E+00  0.00000000E+00  0.00000000E+00
  0.00000000E+00  0.00000000E+00  0.00000000E+00
  0.00000000E+00  0.00000000E+00  0.00000000E+00
  0.00000000E+00  0.00000000E+00  0.00000000E+00
  0.00000000E+00  0.00000000E+00  0.00000000E+00
  0.00000000E+00  0.00000000E+00  0.00000000E+00
  0.00000000E+00  0.00000000E+00  0.00000000E+00
  0.00000000E+00  0.00000000E+00  0.00000000E+00
  0.00000000E+00  0.00000000E+00  0.00000000E+00
  0.00000000E+00  0.00000000E+00  0.00000000E+00
  0.00000000E+00  0.00000000E+00  0.00000000E+00
  0.00000000E+00  0.00000000E+00  0.00000000E+00
  0.00000000E+00  0.00000000E+00  0.00000000E+00
  0.00000000E+00  0.00000000E+00  0.00000000E+00
  0.00000000E+00  0.00000000E+00  0.00000000E+00
  0.00000000E+00  0.00000000E+00  0.00000000E+00
  0.00000000E+00  0.00000000E+00  0.00000000E+00
  0.00000000E+00  0.00000000E+00  0.00000000E+00
  0.00000000E+00  0.00000000E+00  0.00000000E+00
  0.00000000E+00  0.00000000E+00  0.00000000E+00
  0.00000000E+00  0.00000000E+00  0.00000000E+00
  0.00000000E+00  0.00000000E+00  0.00000000E+00
  0.00000000E+00  0.00000000E+00  0.00000000E+00
  0.00000000E+00  0.00000000E+00  0.00000000E+00
  0.00000000E+00  0.00000000E+00  0.00000000E+00
  0.00000000E+00  0.00000000E+00  0.00000000E+00
  0.00000000E+00  0.00000000E+00  0.00000000E+00
  0.00000000E+00  0.00000000E+00  0.00000000E+00
  0.00000000E+00  0.00000000E+00  0.00000000E+00
  0.00000000E+00  0.00000000E+00  0.00000000E+00
  0.00000000E+00  0.00000000E+00  0.00000000E+00
  0.00000000E+00  0.00000000E+00  0.00000000E+00
  0.00000000E+00  0.00000000E+00  0.00000000E+00
  0.00000000E+00  0.00000000E+00  0.00000000E+00
  0.00000000E+00  0.00000000E+00  0.00000000E+00
  0.00000000E+00  0.00000000E+00  0.00000000E+00
  0.00000000E+00  0.00000000E+00  0.00000000E+00
  0.00000000E+00  0.00000000E+00  0.00000000E+00
  0.00000000E+00  0.00000000E+00  0.00000000E+00
  0.00000000E+00  0.00000000E+00  0.00000000E+00
  0.00000000E+00  0.00000000E+00  0.00000000E+00
  0.00000000E+00  0.00000000E+00  0.00000000E+00
  0.00000000E+00  0.00000000E+00  0.00000000E+00
  0.00000000E+00  0.00000000E+00  0.00000000E+00
  0.00000000E+00  0.00000000E+00  0.00000000E+00
  0.00000000E+00  0.00000000E+00  0.00000000E+00
  0.00000000E+00  0.00000000E+00  0.00000000E+00
  0.00000000E+00  0.00000000E+00  0.00000000E+00
  0.00000000E+00  0.00000000E+00  0.00000000E+00
  0.00000000E+00  0.00000000E+00  0.00000000E+00
  0.00000000E+00  0.00000000E+00  0.00000000E+00
  0.00000000E+00  0.00000000E+00  0.00000000E+00
  0.00000000E+00  0.00000000E+00  0.00000000E+00
  0.00000000E+00  0.00000000E+00  0.00000000E+00
  0.00000000E+00  0.00000000E+00  0.00000000E+00
  0.00000000E+00  0.00000000E+00  0.00000000E+00
  0.00000000E+00  0.00000000E+00  0.00000000E+00
  0.00000000E+00  0.00000000E+00  0.00000000E+00
  0.00000000E+00  0.00000000E+00  0.00000000E+00
  0.00000000E+00  0.00000000E+00  0.00000000E+00
  0.00000000E+00  0.00000000E+00  0.00000000E+00
  0.00000000E+00  0.00000000E+00  0.00000000E+00
  0.00000000E+00  0.00000000E+00  0.00000000E+00
  0.00000000E+00  0.00000000E+00  0.00000000E+00
  0.00000000E+00  0.00000000E+00  0.00000000E+00
  0.00000000E+00  0.00000000E+00  0.00000000E+00
  0.00000000E+00  0.00000000E+00  0.00000000E+00
  0.00000000E+00  0.00000000E+00  0.00000000E+00
  0.00000000E+00  0.00000000E+00  0.00000000E+00
  0.00000000E+00  0.00000000E+00  0.00000000E+00
  0.00000000E+00  0.00000000E+00  0.00000000E+00
  0.00000000E+00  0.00000000E+00  0.00000000E+00
  0.00000000E+00  0.00000000E+00  0.00000000E+00
  0.00000000E+00  0.00000000E+00  0.00000000E+00
  0.00000000E+00  0.00000000E+00  0.00000000E+00
  0.00000000E+00  0.00000000E+00  0.00000000E+00
  0.00000000E+00  0.00000000E+00  0.00000000E+00
  0.00000000E+00  0.00000000E+00  0.00000000E+00
  0.00000000E+00  0.00000000E+00  0.00000000E+00
  0.00000000E+00  0.00000000E+00  0.00000000E+00
  0.00000000E+00  0.00000000E+00  0.00000000E+00
  0.00000000E+00  0.00000000E+00  0.00000000E+00
  0.00000000E+00  0.00000000E+00  0.00000000E+00
  0.00000000E+00  0.00000000E+00  0.00000000E+00
  0.00000000E+00  0.00000000E+00  0.00000000E+00
  0.00000000E+00  0.00000000E+00  0.00000000E+00
  0.00000000E+00  0.00000000E+00  0.00000000E+00
  0.00000000E+00  0.00000000E+00  0.00000000E+00
  0.00000000E+00  0.00000000E+00  0.00000000E+00
  0.00000000E+00  0.00000000E+00  0.00000000E+00
  0.00000000E+00  0.00000000E+00  0.00000000E+00
  0.00000000E+00  0.00000000E+00  0.00000000E+00
  0.00000000E+00  0.00000000E+00  0.00000000E+00
  0.00000000E+00  0.00000000E+00  0.00000000E+00
  0.00000000E+00  0.00000000E+00  0.00000000E+00
  0.00000000E+00  0.00000000E+00  0.00000000E+00
  0.00000000E+00  0.00000000E+00  0.00000000E+00
  0.00000000E+00  0.00000000E+00  0.00000000E+00
  0.00000000E+00  0.00000000E+00  0.00000000E+00
  0.00000000E+00  0.00000000E+00  0.00000000E+00
  0.00000000E+00  0.00000000E+00  0.00000000E+00
  0.00000000E+00  0.00000000E+00  0.00000000E+00
  0.00000000E+00  0.00000000E+00  0.00000000E+00
  0.00000000E+00  0.00000000E+00  0.00000000E+00
  0.00000000E+00  0.00000000E+00  0.00000000E+00
  0.00000000E+00  0.00000000E+00  0.00000000E+00
  0.00000000E+00  0.00000000E+00  0.00000000E+00
  0.00000000E+00  0.00000000E+00  0.00000000E+00
  0.00000000E+00  0.00000000E+00  0.00000000E+00
  0.00000000E+00  0.00000000E+00  0.00000000E+00
  0.00000000E+00  0.00000000E+00  0.00000000E+00
  0.00000000E+00  0.00000000E+00  0.00000000E+00
  0.00000000E+00  0.00000000E+00  0.00000000E+00
  0.00000000E+00  0.00000000E+00  0.00000000E+00
  0.00000000E+00  0.00000000E+00  0.00000000E+00
  0.00000000E+00  0.00000000E+00  0.00000000E+00
  0.00000000E+00  0.00000000E+00  0.00000000E+00
  0.00000000E+00  0.00000000E+00  0.00000000E+00
  0.00000000E+00  0.00000000E+00  0.00000000E+00
  0.00000000E+00  0.00000000E+00  0.00000000E+00
  0.00000000E+00  0.00000000E+00  0.00000000E+00
  0.00000000E+00  0.00000000E+00  0.00000000E+00
  0.00000000E+00  0.00000000E+00  0.00000000E+00
  0.00000000E+00  0.00000000E+00  0.00000000E+00
  0.00000000E+00  0.00000000E+00  0.00000000E+00
  0.00000000E+00  0.00000000E+00  0.00000000E+00
  0.00000000E+00  0.00000000E+00  0.00000000E+00
  0.00000000E+00  0.00000000E+00  0.00000000E+00
  0.00000000E+00  0.00000000E+00  0.00000000E+00
  0.00000000E+00  0.00000000E+00  0.00000000E+00
  0.00000000E+00  0.00000000E+00  0.00000000E+00
  0.00000000E+00  0.00000000E+00  0.00000000E+00
  0.00000000E+00  0.00000000E+00  0.00000000E+00
  0.00000000E+00  0.00000000E+00  0.00000000E+00
  0.00000000E+00  0.00000000E+00  0.00000000E+00
  0.00000000E+00  0.00000000E+00  0.00000000E+00
  0.00000000E+00  0.00000000E+00  0.00000000E+00
  0.00000000E+00  0.00000000E+00  0.00000000E+00
  0.00000000E+00  0.00000000E+00  0.00000000E+00
  0.00000000E+00  0.00000000E+00  0.00000000E+00
  0.00000000E+00  0.00000000E+00  0.00000000E+00
  0.00000000E+00  0.00000000E+00  0.00000000E+00
  0.00000000E+00  0.00000000E+00  0.00000000E+00
  0.00000000E+00  0.00000000E+00  0.00000000E+00
  0.00000000E+00  0.00000000E+00  0.00000000E+00
  0.00000000E+00  0.00000000E+00  0.00000000E+00
  0.00000000E+00  0.00000000E+00  0.00000000E+00
  0.00000000E+00  0.00000000E+00  0.00000000E+00
  0.00000000E+00  0.00000000E+00  0.00000000E+00
  0.00000000E+00  0.00000000E+00  0.00000000E+00
  0.00000000E+00  0.00000000E+00  0.00000000E+00
  0.00000000E+00  0.00000000E+00  0.00000000E+00
  0.00000000E+00  0.00000000E+00  0.00000000E+00
  0.00000000E+00  0.00000000E+00  0.00000000E+00
  0.00000000E+00  0.00000000E+00  0.00000000E+00
  0.00000000E+00  0.00000000E+00  0.00000000E+00
  0.00000000E+00  0.00000000E+00  0.00000000E+00
  0.00000000E+00  0.00000000E+00  0.00000000E+00
