In18 Ga36 Cu36 Ag18 Se108               
   1.0000000000000000     
    15.9639237893394039   -0.0001495151983359   -7.2346821802469128
    -3.2579380981608139   15.6484146659761283   -7.2168891152076391
     0.0079003372059188    0.0102571850649081   21.3278570521150996
   In   Ga   Cu   Ag   Se
    18    36    36    18   108
Direct
  0.5008311433267707  0.5011291287058270  0.0003576319184688
  0.4980925888662995  0.8336068948552224  0.9987181709423112
  0.4964495381040166  0.1665499176196832  0.3313589346035783
  0.8360454739104242  0.1661998047913755  0.3299690622307239
  0.8343663824955385  0.8346298119497817  0.6686531336764858
  0.1694549925052229  0.1671750139311570  0.6662339887636506
  0.8333503161505433  0.1590255091297337  0.6674960533517407
  0.9166837682772737  0.4122986864093079  0.1663978783439504
  0.5837825464223130  0.7519560319858627  0.1689671319842745
  0.2466634305203002  0.0815482135490910  0.1662667462984118
  0.2550986901743357  0.4136960789858293  0.5004198439176335
  0.2535881924991514  0.7518996689487949  0.4999100764159294
  0.9113005785330301  0.7491088248665108  0.4957991355790128
  0.9181238218087628  0.0797441094941718  0.4989162590083325
  0.2489251998118718  0.4222276126196789  0.8369392583012143
  0.9188713904045400  0.4216608279084824  0.8360584994674554
  0.9180328801815278  0.7521646474496464  0.8376111248638978
  0.2495716207799745  0.0829406237346717  0.8367774582123104
  0.1710106613373128  0.5041787430969933  0.0059639300274696
  0.8312219525400053  0.5002271289039086  0.9988186476453436
  0.1666974421535059  0.8347233719737162  0.0008612299381312
  0.8354021784146326  0.8344213977137755  0.0015159157192244
  0.1640069516423637  0.1648590632499634  0.0014868681940854
  0.5025863357391955  0.1699081393203343  0.0036998855001045
  0.8354930723061074  0.1631040274445681  0.0002551247684650
  0.1716677078347502  0.4943419075934585  0.3315282956646968
  0.4971991219844369  0.4975856831882481  0.3295512335587603
  0.8263157265810861  0.4961526170643182  0.3314352433972445
  0.1659157019936828  0.8409316709523722  0.3312253652744914
  0.4960091447845087  0.8316615624235908  0.3337002718192537
  0.8352399610541923  0.8351057771150678  0.3288587923977815
  0.1656822452173827  0.1603743257824632  0.3312782511188885
  0.1621168142416280  0.4999822770924993  0.6692506962920888
  0.5056503965338237  0.5031683237295894  0.6700853988279150
  0.8351196782439629  0.5044210325737382  0.6660427094439783
  0.1636546132725272  0.8376751153886062  0.6676290819189887
  0.5057481840157436  0.8366599795795722  0.6688141952745141
  0.4991789843051393  0.1652258326823386  0.6689987789934193
  0.2492843504039044  0.4104257177916395  0.1634821760040879
  0.5794863699446324  0.4153446588847274  0.1670848967535150
  0.2506460772955634  0.7557117770220145  0.1667006186859368
  0.9155101276186315  0.7547639127290680  0.1639463437662343
  0.5813064357495250  0.0815215648762901  0.1610547999535896
  0.9194213744005779  0.0785901307145664  0.1623801571975250
  0.5817149905822632  0.4227502507010854  0.4996151722094737
  0.9190483702225691  0.4213147378514677  0.5041437092763630
  0.5805036641649295  0.7492201342659826  0.4960909668827540
  0.2505062859968064  0.0815853549971166  0.4991453617084218
  0.5764003708172467  0.0753015966744996  0.4971802394005920
  0.5874653613985501  0.4143269620112306  0.8324863121655923
  0.2401789533130412  0.7516994147730998  0.8331537749476681
  0.5921278673576964  0.7533135202409724  0.8354987635632583
  0.5873200853539373  0.0826419298238577  0.8368928902360793
  0.9198178809037429  0.0824760629833392  0.8399434582604783
  0.9980737085903684  0.3314590287612447  0.0011734782715678
  0.3371237088757013  0.3369184464445922  0.0101329018768155
  0.6679646939764012  0.3287196579448732  0.9993485328585763
  0.0046505082071846  0.6704197660459386  0.0044491668666353
  0.3240309151270040  0.6714822549726662  0.0033367110067033
  0.6745767088060930  0.6676725307212976  0.9956623951151968
  0.9988183704055515  0.9994289011692530  0.9999412518474173
  0.3324531761311533  0.0010468803445249  0.0025916431827184
  0.6724393344120756  0.0034779962105205  0.0035522488874236
  0.3331990606103261  0.3365323000940421  0.3308629172128903
  0.6613014471793761  0.6667230155131492  0.3347967459292036
  0.0058705463601072  0.0002291483077244  0.3324451356369664
  0.3305285999576100  0.9926367507461222  0.3314754298366225
  0.0013189456812626  0.3371624709200631  0.6635102237697907
  0.3326642749396314  0.3344358086013699  0.6659108097429680
  0.0025498651253884  0.6688612258621092  0.6695436033624631
  0.0000550040310117  0.9954729553529162  0.6671165442933642
  0.3333813021243728  0.9976168968362202  0.6622601910848687
  0.4144832541628602  0.5846699832814650  0.1672997571998849
  0.0815409827987708  0.9151065143599126  0.1638666903876924
  0.4120779864705284  0.9140030165541759  0.1656990022900686
  0.7549339243531676  0.9198560188548086  0.1632987993061761
  0.0854384015956455  0.2489986791892704  0.1664482298682017
  0.4135197447607197  0.2446745076017578  0.1599622492389301
  0.7420405360056819  0.2438513212182372  0.1565425844769734
  0.4225640083091236  0.5809239889225779  0.5000841606948399
  0.7468184886910976  0.5846631903454806  0.4965884108671759
  0.0835567066719562  0.9183757692309342  0.5003326303582369
  0.4142950634703411  0.9180581513526320  0.4997427629103726
  0.7467567807833220  0.9099263888176097  0.4918116725770574
  0.0892919934457623  0.2515100892392113  0.5023077702473131
  0.0818977028258558  0.5866935027421221  0.8361279277279223
  0.7532468363263476  0.5879352183722801  0.8389955364749895
  0.0839500832576903  0.9179081793476058  0.8359037370216313
  0.7513776132961993  0.9220159564881030  0.8423269047622668
  0.7524171005702485  0.2522945159395888  0.8429265950299722
  0.9949999776355796  0.3252240533045807  0.3262315546383263
  0.6669673252298693  0.3349941425538177  0.3311624095066890
  0.0039622385734717  0.6705338864187880  0.3295379447843345
  0.3315972269894445  0.6636478137625943  0.3305164667451947
  0.6553618586166934  0.9929880911796261  0.3280159983336759
  0.6677357173078562  0.3352843453762802  0.6707296405733842
  0.3333446178719441  0.6664721498535684  0.6703357279082027
  0.6623437907417156  0.6634804826424130  0.6626909182344392
  0.6668618206142582  0.9995224073700371  0.6666858426768911
  0.0836887929424464  0.5841763168387573  0.1608374313504726
  0.7460586871468351  0.5789577678566431  0.1690350514966141
  0.0788875985256396  0.5809606837679269  0.4974500821278980
  0.4173179330873538  0.2475952646288917  0.5029202377232167
  0.7527822342168591  0.2545255167909346  0.5065746802940723
  0.4208984999473699  0.5797267997057816  0.8290183599848717
  0.4201629850014044  0.9187755192624678  0.8341504144937204
  0.0817857085273346  0.2561663850526799  0.8388166657486948
  0.4224289015791527  0.2439401223139086  0.8355916145759821
  0.1254746536192783  0.4486262307050879  0.0780370944428270
  0.4562072370953061  0.4600221518837557  0.0893760490721220
  0.7866602511913499  0.4525767637041298  0.0748779968376141
  0.1245296478078757  0.7945672306686120  0.0836751281827617
  0.4466202004488196  0.7915244727057100  0.0833486829619403
  0.7905717322224390  0.7944147301082936  0.0817126373763699
  0.1151128130006782  0.1250759308385838  0.0793546478033207
  0.4556847560877202  0.1228504102641779  0.0804964890479170
  0.7944168807583551  0.1246996450715798  0.0841473138360129
  0.1265686189716746  0.4559398237871619  0.4103176679708582
  0.4558302786878414  0.4591545649419615  0.4140563776586816
  0.7970370312736463  0.4652234491473521  0.4230278198990405
  0.1280028793214711  0.8043425857739095  0.4162995123295588
  0.4588769067063225  0.7982707107393452  0.4206123415760104
  0.7805966761442278  0.7910569437451542  0.4038176080640028
  0.1251514825963014  0.1264388587461482  0.4184811378307245
  0.4532337642704221  0.1113932131994133  0.4129247477928715
  0.7870726136637742  0.1228613763665365  0.4134531768349845
  0.1149110818958050  0.4630135210081576  0.7495958831905654
  0.4621389264053164  0.4470673048452696  0.7429177151831396
  0.7919458741861050  0.4726264334504080  0.7512448452827130
  0.1188398862218278  0.7957483493952395  0.7497529590035938
  0.4706672526122588  0.7913168125852721  0.7508227356386357
  0.7864927775210049  0.8012218549527219  0.7578536878584856
  0.1160128982775035  0.1205258519986998  0.7465624438675604
  0.4612303931673054  0.1128626311393361  0.7466196296678191
  0.7978319054034912  0.1309600610134112  0.7659789501207612
  0.2936471297559109  0.6290988375944551  0.0881918224401517
  0.6303010930464055  0.6308646602868322  0.0767489814409146
  0.9503424563691851  0.6284420827457637  0.0780413417648305
  0.2944662245805176  0.9521949093197648  0.0806082893345064
  0.6326888079810615  0.9637624900658963  0.0852852949112162
  0.9612891229558826  0.9555162688384016  0.0805458894421633
  0.2900266667949296  0.2862830611981053  0.0818710674382785
  0.6242798750049516  0.2947088278380576  0.0826893374868476
  0.9624914030120237  0.2824492676180199  0.0801874540411447
  0.2957081326515052  0.6140324471690803  0.4177653084073114
  0.6225043857332935  0.6230391227767953  0.4152743506105310
  0.9476296092325214  0.6162866747972373  0.4042004769166496
  0.2937175563517798  0.9593315357691310  0.4170020220091786
  0.6204874180026678  0.9522982610400632  0.4190377667249905
  0.9650770616505824  0.9521294096496433  0.4105332706453311
  0.2888479346886186  0.2823563284215638  0.4033902638355968
  0.6226382359999505  0.2998246637534976  0.4217525379181453
  0.9663055900809070  0.2986083740722378  0.4285655239817956
  0.2802652272352475  0.6262491324054480  0.7533379601804526
  0.6299648943874629  0.6244849771830161  0.7574899514679672
  0.9626217050018155  0.6234179200390244  0.7483870094381970
  0.2887963646695795  0.9565742835553479  0.7408049852214376
  0.6298883497102992  0.9576653401647377  0.7587244069438484
  0.9674229032643424  0.9657142344182503  0.7573887968730375
  0.2995526248094436  0.2979652068807326  0.7513284901439761
  0.6273917244779383  0.2851009663168256  0.7563831272205306
  0.9584951287729311  0.2948055801698644  0.7412808178718748
  0.2082430699894431  0.3696213211687791  0.2464838586911640
  0.5306635222469538  0.3712458991281338  0.2427067614155689
  0.8584108566201891  0.3691388916075766  0.2461584745734626
  0.2082505358588520  0.7205717792380710  0.2497425660371633
  0.5368861483765741  0.7048493115955310  0.2545368347747754
  0.8732865879624470  0.7142549551188537  0.2442786227356635
  0.2060778743405152  0.0330030578782115  0.2534779362764894
  0.5316636295353447  0.0357533705661552  0.2354152866396646
  0.8828986989425331  0.0342312263079236  0.2449264136377280
  0.2084600098463483  0.3754479164974640  0.5902947584487848
  0.5424404309421007  0.3843324785229143  0.5826335363017563
  0.8814088199670778  0.3832560283884661  0.5887503975183392
  0.2041534882589247  0.7159543918536571  0.5876729612569349
  0.5345138987439810  0.7111770855006867  0.5767531745344101
  0.8750169318961269  0.6982979950684154  0.5836060225435418
  0.2108430246643991  0.0332911518684185  0.5780034169964239
  0.5324847230139937  0.0415078428072349  0.5803878404733069
  0.8735995593468928  0.0239525524060724  0.5804282579736935
  0.2170871575271036  0.3812293892629341  0.9310445391330973
  0.5528795794564445  0.3745846836535733  0.9172887965705314
  0.8748450016906943  0.3734736980112316  0.9225070971832210
  0.2029225475715464  0.7084224327805586  0.9168831613359245
  0.5532260462140357  0.7092899369004115  0.9158298805614251
  0.8761154584242945  0.7065134096244492  0.9249386487432503
  0.2060402043295113  0.0383821026170494  0.9241618003846241
  0.5513518369927155  0.0498600221926679  0.9256393592803605
  0.8754866772725478  0.0378096586491878  0.9189039634243485
  0.0518397408675497  0.5374044099956805  0.2522703762779841
  0.3732762484483487  0.5329919084972374  0.2421770544725277
  0.7000211764011084  0.5402049205186898  0.2560029767820140
  0.0409763302813957  0.8781719051563499  0.2463259899166985
  0.3757983482610925  0.8773169253457525  0.2502237517271908
  0.7182476909739322  0.8796122851205652  0.2464572599844317
  0.0452047637011788  0.1982593352201292  0.2426961052160763
  0.3718251777016732  0.2179965200369338  0.2463959379212426
  0.7027683240401714  0.2039342587141775  0.2376262138683174
  0.0409452248914945  0.5439063397624153  0.5896796222928842
  0.3874024736140669  0.5446405294031038  0.5855012113698876
  0.7111914158316779  0.5388232040010834  0.5767604286224497
  0.0443569093350007  0.8814712647724932  0.5841300719286551
  0.3853966368305493  0.8827877205692829  0.5885124950500327
  0.7043765440915877  0.8697489164037293  0.5716013983114365
  0.0419935637451232  0.2180922231653497  0.5825704728322023
  0.3718906366810941  0.2070069611547538  0.5904691873096226
  0.6979554270146551  0.1962499304289196  0.5789221504186699
  0.0519352512656184  0.5528496969967023  0.9259176026552325
  0.3729392521244250  0.5575431978419587  0.9244739803062885
  0.7094279046424106  0.5406865310720761  0.9139942574365065
  0.0486753183971587  0.8843428293116133  0.9229196872583074
  0.3617949460034922  0.8760672891658245  0.9141211228197150
  0.7127148622538115  0.8796927471131823  0.9219120802455834
  0.0392704663494783  0.2073521819570061  0.9234337398880967
  0.3790139875121099  0.2163982864440683  0.9294643873236907
  0.7106587255456560  0.2074184302121580  0.9204719081923827

  0.00000000E+00  0.00000000E+00  0.00000000E+00
  0.00000000E+00  0.00000000E+00  0.00000000E+00
  0.00000000E+00  0.00000000E+00  0.00000000E+00
  0.00000000E+00  0.00000000E+00  0.00000000E+00
  0.00000000E+00  0.00000000E+00  0.00000000E+00
  0.00000000E+00  0.00000000E+00  0.00000000E+00
  0.00000000E+00  0.00000000E+00  0.00000000E+00
  0.00000000E+00  0.00000000E+00  0.00000000E+00
  0.00000000E+00  0.00000000E+00  0.00000000E+00
  0.00000000E+00  0.00000000E+00  0.00000000E+00
  0.00000000E+00  0.00000000E+00  0.00000000E+00
  0.00000000E+00  0.00000000E+00  0.00000000E+00
  0.00000000E+00  0.00000000E+00  0.00000000E+00
  0.00000000E+00  0.00000000E+00  0.00000000E+00
  0.00000000E+00  0.00000000E+00  0.00000000E+00
  0.00000000E+00  0.00000000E+00  0.00000000E+00
  0.00000000E+00  0.00000000E+00  0.00000000E+00
  0.00000000E+00  0.00000000E+00  0.00000000E+00
  0.00000000E+00  0.00000000E+00  0.00000000E+00
  0.00000000E+00  0.00000000E+00  0.00000000E+00
  0.00000000E+00  0.00000000E+00  0.00000000E+00
  0.00000000E+00  0.00000000E+00  0.00000000E+00
  0.00000000E+00  0.00000000E+00  0.00000000E+00
  0.00000000E+00  0.00000000E+00  0.00000000E+00
  0.00000000E+00  0.00000000E+00  0.00000000E+00
  0.00000000E+00  0.00000000E+00  0.00000000E+00
  0.00000000E+00  0.00000000E+00  0.00000000E+00
  0.00000000E+00  0.00000000E+00  0.00000000E+00
  0.00000000E+00  0.00000000E+00  0.00000000E+00
  0.00000000E+00  0.00000000E+00  0.00000000E+00
  0.00000000E+00  0.00000000E+00  0.00000000E+00
  0.00000000E+00  0.00000000E+00  0.00000000E+00
  0.00000000E+00  0.00000000E+00  0.00000000E+00
  0.00000000E+00  0.00000000E+00  0.00000000E+00
  0.00000000E+00  0.00000000E+00  0.00000000E+00
  0.00000000E+00  0.00000000E+00  0.00000000E+00
  0.00000000E+00  0.00000000E+00  0.00000000E+00
  0.00000000E+00  0.00000000E+00  0.00000000E+00
  0.00000000E+00  0.00000000E+00  0.00000000E+00
  0.00000000E+00  0.00000000E+00  0.00000000E+00
  0.00000000E+00  0.00000000E+00  0.00000000E+00
  0.00000000E+00  0.00000000E+00  0.00000000E+00
  0.00000000E+00  0.00000000E+00  0.00000000E+00
  0.00000000E+00  0.00000000E+00  0.00000000E+00
  0.00000000E+00  0.00000000E+00  0.00000000E+00
  0.00000000E+00  0.00000000E+00  0.00000000E+00
  0.00000000E+00  0.00000000E+00  0.00000000E+00
  0.00000000E+00  0.00000000E+00  0.00000000E+00
  0.00000000E+00  0.00000000E+00  0.00000000E+00
  0.00000000E+00  0.00000000E+00  0.00000000E+00
  0.00000000E+00  0.00000000E+00  0.00000000E+00
  0.00000000E+00  0.00000000E+00  0.00000000E+00
  0.00000000E+00  0.00000000E+00  0.00000000E+00
  0.00000000E+00  0.00000000E+00  0.00000000E+00
  0.00000000E+00  0.00000000E+00  0.00000000E+00
  0.00000000E+00  0.00000000E+00  0.00000000E+00
  0.00000000E+00  0.00000000E+00  0.00000000E+00
  0.00000000E+00  0.00000000E+00  0.00000000E+00
  0.00000000E+00  0.00000000E+00  0.00000000E+00
  0.00000000E+00  0.00000000E+00  0.00000000E+00
  0.00000000E+00  0.00000000E+00  0.00000000E+00
  0.00000000E+00  0.00000000E+00  0.00000000E+00
  0.00000000E+00  0.00000000E+00  0.00000000E+00
  0.00000000E+00  0.00000000E+00  0.00000000E+00
  0.00000000E+00  0.00000000E+00  0.00000000E+00
  0.00000000E+00  0.00000000E+00  0.00000000E+00
  0.00000000E+00  0.00000000E+00  0.00000000E+00
  0.00000000E+00  0.00000000E+00  0.00000000E+00
  0.00000000E+00  0.00000000E+00  0.00000000E+00
  0.00000000E+00  0.00000000E+00  0.00000000E+00
  0.00000000E+00  0.00000000E+00  0.00000000E+00
  0.00000000E+00  0.00000000E+00  0.00000000E+00
  0.00000000E+00  0.00000000E+00  0.00000000E+00
  0.00000000E+00  0.00000000E+00  0.00000000E+00
  0.00000000E+00  0.00000000E+00  0.00000000E+00
  0.00000000E+00  0.00000000E+00  0.00000000E+00
  0.00000000E+00  0.00000000E+00  0.00000000E+00
  0.00000000E+00  0.00000000E+00  0.00000000E+00
  0.00000000E+00  0.00000000E+00  0.00000000E+00
  0.00000000E+00  0.00000000E+00  0.00000000E+00
  0.00000000E+00  0.00000000E+00  0.00000000E+00
  0.00000000E+00  0.00000000E+00  0.00000000E+00
  0.00000000E+00  0.00000000E+00  0.00000000E+00
  0.00000000E+00  0.00000000E+00  0.00000000E+00
  0.00000000E+00  0.00000000E+00  0.00000000E+00
  0.00000000E+00  0.00000000E+00  0.00000000E+00
  0.00000000E+00  0.00000000E+00  0.00000000E+00
  0.00000000E+00  0.00000000E+00  0.00000000E+00
  0.00000000E+00  0.00000000E+00  0.00000000E+00
  0.00000000E+00  0.00000000E+00  0.00000000E+00
  0.00000000E+00  0.00000000E+00  0.00000000E+00
  0.00000000E+00  0.00000000E+00  0.00000000E+00
  0.00000000E+00  0.00000000E+00  0.00000000E+00
  0.00000000E+00  0.00000000E+00  0.00000000E+00
  0.00000000E+00  0.00000000E+00  0.00000000E+00
  0.00000000E+00  0.00000000E+00  0.00000000E+00
  0.00000000E+00  0.00000000E+00  0.00000000E+00
  0.00000000E+00  0.00000000E+00  0.00000000E+00
  0.00000000E+00  0.00000000E+00  0.00000000E+00
  0.00000000E+00  0.00000000E+00  0.00000000E+00
  0.00000000E+00  0.00000000E+00  0.00000000E+00
  0.00000000E+00  0.00000000E+00  0.00000000E+00
  0.00000000E+00  0.00000000E+00  0.00000000E+00
  0.00000000E+00  0.00000000E+00  0.00000000E+00
  0.00000000E+00  0.00000000E+00  0.00000000E+00
  0.00000000E+00  0.00000000E+00  0.00000000E+00
  0.00000000E+00  0.00000000E+00  0.00000000E+00
  0.00000000E+00  0.00000000E+00  0.00000000E+00
  0.00000000E+00  0.00000000E+00  0.00000000E+00
  0.00000000E+00  0.00000000E+00  0.00000000E+00
  0.00000000E+00  0.00000000E+00  0.00000000E+00
  0.00000000E+00  0.00000000E+00  0.00000000E+00
  0.00000000E+00  0.00000000E+00  0.00000000E+00
  0.00000000E+00  0.00000000E+00  0.00000000E+00
  0.00000000E+00  0.00000000E+00  0.00000000E+00
  0.00000000E+00  0.00000000E+00  0.00000000E+00
  0.00000000E+00  0.00000000E+00  0.00000000E+00
  0.00000000E+00  0.00000000E+00  0.00000000E+00
  0.00000000E+00  0.00000000E+00  0.00000000E+00
  0.00000000E+00  0.00000000E+00  0.00000000E+00
  0.00000000E+00  0.00000000E+00  0.00000000E+00
  0.00000000E+00  0.00000000E+00  0.00000000E+00
  0.00000000E+00  0.00000000E+00  0.00000000E+00
  0.00000000E+00  0.00000000E+00  0.00000000E+00
  0.00000000E+00  0.00000000E+00  0.00000000E+00
  0.00000000E+00  0.00000000E+00  0.00000000E+00
  0.00000000E+00  0.00000000E+00  0.00000000E+00
  0.00000000E+00  0.00000000E+00  0.00000000E+00
  0.00000000E+00  0.00000000E+00  0.00000000E+00
  0.00000000E+00  0.00000000E+00  0.00000000E+00
  0.00000000E+00  0.00000000E+00  0.00000000E+00
  0.00000000E+00  0.00000000E+00  0.00000000E+00
  0.00000000E+00  0.00000000E+00  0.00000000E+00
  0.00000000E+00  0.00000000E+00  0.00000000E+00
  0.00000000E+00  0.00000000E+00  0.00000000E+00
  0.00000000E+00  0.00000000E+00  0.00000000E+00
  0.00000000E+00  0.00000000E+00  0.00000000E+00
  0.00000000E+00  0.00000000E+00  0.00000000E+00
  0.00000000E+00  0.00000000E+00  0.00000000E+00
  0.00000000E+00  0.00000000E+00  0.00000000E+00
  0.00000000E+00  0.00000000E+00  0.00000000E+00
  0.00000000E+00  0.00000000E+00  0.00000000E+00
  0.00000000E+00  0.00000000E+00  0.00000000E+00
  0.00000000E+00  0.00000000E+00  0.00000000E+00
  0.00000000E+00  0.00000000E+00  0.00000000E+00
  0.00000000E+00  0.00000000E+00  0.00000000E+00
  0.00000000E+00  0.00000000E+00  0.00000000E+00
  0.00000000E+00  0.00000000E+00  0.00000000E+00
  0.00000000E+00  0.00000000E+00  0.00000000E+00
  0.00000000E+00  0.00000000E+00  0.00000000E+00
  0.00000000E+00  0.00000000E+00  0.00000000E+00
  0.00000000E+00  0.00000000E+00  0.00000000E+00
  0.00000000E+00  0.00000000E+00  0.00000000E+00
  0.00000000E+00  0.00000000E+00  0.00000000E+00
  0.00000000E+00  0.00000000E+00  0.00000000E+00
  0.00000000E+00  0.00000000E+00  0.00000000E+00
  0.00000000E+00  0.00000000E+00  0.00000000E+00
  0.00000000E+00  0.00000000E+00  0.00000000E+00
  0.00000000E+00  0.00000000E+00  0.00000000E+00
  0.00000000E+00  0.00000000E+00  0.00000000E+00
  0.00000000E+00  0.00000000E+00  0.00000000E+00
  0.00000000E+00  0.00000000E+00  0.00000000E+00
  0.00000000E+00  0.00000000E+00  0.00000000E+00
  0.00000000E+00  0.00000000E+00  0.00000000E+00
  0.00000000E+00  0.00000000E+00  0.00000000E+00
  0.00000000E+00  0.00000000E+00  0.00000000E+00
  0.00000000E+00  0.00000000E+00  0.00000000E+00
  0.00000000E+00  0.00000000E+00  0.00000000E+00
  0.00000000E+00  0.00000000E+00  0.00000000E+00
  0.00000000E+00  0.00000000E+00  0.00000000E+00
  0.00000000E+00  0.00000000E+00  0.00000000E+00
  0.00000000E+00  0.00000000E+00  0.00000000E+00
  0.00000000E+00  0.00000000E+00  0.00000000E+00
  0.00000000E+00  0.00000000E+00  0.00000000E+00
  0.00000000E+00  0.00000000E+00  0.00000000E+00
  0.00000000E+00  0.00000000E+00  0.00000000E+00
  0.00000000E+00  0.00000000E+00  0.00000000E+00
  0.00000000E+00  0.00000000E+00  0.00000000E+00
  0.00000000E+00  0.00000000E+00  0.00000000E+00
  0.00000000E+00  0.00000000E+00  0.00000000E+00
  0.00000000E+00  0.00000000E+00  0.00000000E+00
  0.00000000E+00  0.00000000E+00  0.00000000E+00
  0.00000000E+00  0.00000000E+00  0.00000000E+00
  0.00000000E+00  0.00000000E+00  0.00000000E+00
  0.00000000E+00  0.00000000E+00  0.00000000E+00
  0.00000000E+00  0.00000000E+00  0.00000000E+00
  0.00000000E+00  0.00000000E+00  0.00000000E+00
  0.00000000E+00  0.00000000E+00  0.00000000E+00
  0.00000000E+00  0.00000000E+00  0.00000000E+00
  0.00000000E+00  0.00000000E+00  0.00000000E+00
  0.00000000E+00  0.00000000E+00  0.00000000E+00
  0.00000000E+00  0.00000000E+00  0.00000000E+00
  0.00000000E+00  0.00000000E+00  0.00000000E+00
  0.00000000E+00  0.00000000E+00  0.00000000E+00
  0.00000000E+00  0.00000000E+00  0.00000000E+00
  0.00000000E+00  0.00000000E+00  0.00000000E+00
  0.00000000E+00  0.00000000E+00  0.00000000E+00
  0.00000000E+00  0.00000000E+00  0.00000000E+00
  0.00000000E+00  0.00000000E+00  0.00000000E+00
  0.00000000E+00  0.00000000E+00  0.00000000E+00
  0.00000000E+00  0.00000000E+00  0.00000000E+00
  0.00000000E+00  0.00000000E+00  0.00000000E+00
  0.00000000E+00  0.00000000E+00  0.00000000E+00
  0.00000000E+00  0.00000000E+00  0.00000000E+00
  0.00000000E+00  0.00000000E+00  0.00000000E+00
  0.00000000E+00  0.00000000E+00  0.00000000E+00
  0.00000000E+00  0.00000000E+00  0.00000000E+00
  0.00000000E+00  0.00000000E+00  0.00000000E+00
  0.00000000E+00  0.00000000E+00  0.00000000E+00
  0.00000000E+00  0.00000000E+00  0.00000000E+00
  0.00000000E+00  0.00000000E+00  0.00000000E+00
  0.00000000E+00  0.00000000E+00  0.00000000E+00
  0.00000000E+00  0.00000000E+00  0.00000000E+00
  0.00000000E+00  0.00000000E+00  0.00000000E+00
  0.00000000E+00  0.00000000E+00  0.00000000E+00
  0.00000000E+00  0.00000000E+00  0.00000000E+00
