In12 Ga42 Cu6 Ag48 Se108                
   1.0000000000000000     
    16.4126292173949615    0.0001045301110126   -7.6603829208971153
    -3.5469275758732270   15.9965214225891241   -7.6320520198150259
     0.0150005726493076    0.0177573041906774   21.4183269192720012
   In   Ga   Cu   Ag   Se
    12    42     6    48   108
Direct
  0.1672053360923158  0.5001449377492335  0.9987988407924178
  0.8264536796729800  0.8324195560601879  0.9993039617241735
  0.1660864799037967  0.1658416468579276  0.0024759417186715
  0.1746566564641725  0.8368059749209422  0.3352847884693162
  0.5045523843097826  0.5033007476848113  0.6664429534957961
  0.9129694459290576  0.4210676358431016  0.1666689438046305
  0.9124451683613444  0.7469987423669764  0.1685335122820035
  0.5837790893287504  0.0838557597651501  0.1660006442771831
  0.9164040592811560  0.0847297979675119  0.1687583988676309
  0.9166442049764782  0.0825641014041665  0.5006685893565503
  0.9131009443737952  0.7450180062042264  0.8308789265194179
  0.2524924465012361  0.0813872959752402  0.8301544767752489
  0.5031641204458310  0.5008564767688242  0.0017009452238241
  0.8281053301212751  0.5016684964042923  0.9954235024392304
  0.1688311170312957  0.8341093909684290  0.0005723535948263
  0.5050928952042284  0.8313343915670828  0.9957353104982190
  0.5029133348492110  0.1683771667108402  0.0003211827023648
  0.8268112566309895  0.1614206010738144  0.9953232638976104
  0.1703775047258205  0.5028803017927501  0.3355583812520493
  0.5002717938997421  0.5016683212531419  0.3328337854512498
  0.8309631544696430  0.5022893562188742  0.3360336556124963
  0.4974215153794717  0.8364541499121785  0.3360623360927093
  0.8316945676718532  0.8268301108759175  0.3344126802695584
  0.1739515539887151  0.1667527343800330  0.3374355564206084
  0.4979833832569582  0.1641524216003774  0.3345542037276559
  0.8322427586434671  0.1715946298641597  0.3379804058863201
  0.1668652244643809  0.4993444077324156  0.6659784689977570
  0.8272880701026324  0.5003660102756839  0.6645600068094737
  0.1685790865171697  0.8297197360774007  0.6638717249032524
  0.5015527633737449  0.8313072596842161  0.6643354760794011
  0.8263987938707800  0.8312349181438350  0.6640092740816499
  0.1694043822474640  0.1686014301925454  0.6651383061336205
  0.5005642735043878  0.1651968347824422  0.6677815970410492
  0.8278766854064870  0.1658356826091705  0.6674380036555689
  0.2520330855801731  0.4193071471304961  0.1703897300943709
  0.5861508057834683  0.4192782600591016  0.1668907324567073
  0.2541231295990372  0.7521076292999567  0.1668506620690380
  0.5858265439224155  0.7494370661951351  0.1686114325459158
  0.2538669402644729  0.0804490051361739  0.1714394657879765
  0.2506455873583633  0.4182820208606728  0.4986071309161915
  0.5826419918959118  0.4164826492886959  0.4972055571485541
  0.9144916499504490  0.4184846180668131  0.5020660746177157
  0.2539908474715560  0.7503506588748294  0.5005545133442553
  0.5810575104652003  0.7507296860612627  0.5006861591223810
  0.9155642174870025  0.7502095769650410  0.5021857817493682
  0.2584327860097986  0.0844204271953402  0.5028459585188756
  0.5777604446875060  0.0799120886037343  0.4997244525066904
  0.2539332636825335  0.4142566567486341  0.8321406632980271
  0.5841142343938159  0.4177805002376758  0.8328214067866426
  0.9081351930210886  0.4191817016669432  0.8309756156323829
  0.2510694752226073  0.7494845270274269  0.8327269219347571
  0.5860555148153850  0.7528404879506070  0.8308175084989031
  0.5820128979703796  0.0812762411249537  0.8329719665427149
  0.9116930112892234  0.0818969547343329  0.8308898047140900
  0.6603256834334061  0.0002498934995145  0.9936227992004731
  0.3370613396568700  0.0009795604380329  0.3382757804339320
  0.6643525763238358  0.6649284478043711  0.6646506271161954
  0.7453207715014827  0.5833966286296857  0.1659931904007408
  0.4194830567586223  0.9185997770440224  0.5012343310784644
  0.7443376377949420  0.5811948232533268  0.8281273800420905
  0.9944625231300108  0.3269964273256178  0.9959283818508951
  0.3361912730850207  0.3358777789045533  0.0020813701072058
  0.6695497038978928  0.3322872059335964  0.0017740722253379
  0.0008356057511421  0.6682463582212606  0.9989131715421422
  0.3380984196062613  0.6749579272390704  0.9998976585687203
  0.6607684830939107  0.6567657205856463  0.9954179376075842
  0.0004126604786663  0.0037313570412039  0.0008391484307495
  0.3362229308644089  0.9952649512565941  0.0000807339146860
  0.0014554518361010  0.3352711305729272  0.3414134455436368
  0.3343018413290650  0.3309373580757011  0.3329609692161881
  0.6678979921753339  0.3364214600234803  0.3364847743970145
  0.0023857504665941  0.6709142446327547  0.3411346941252660
  0.3381595848801524  0.6721448099951743  0.3357758863907279
  0.6659843412271371  0.6646036492697576  0.3295803602591150
  0.0022137329518657  0.0050771287792983  0.3386670822099518
  0.6650938142795226  0.9967055019006068  0.3333771562927481
  0.9984228847729142  0.3372159328136703  0.6679828147361775
  0.3337486588112455  0.3370134127659554  0.6671780588527128
  0.6682320530058306  0.3340115488481459  0.6669304548338175
  0.0013645541816345  0.6682274503277128  0.6631366876658902
  0.3306824224682927  0.6646157079726578  0.6662648565436768
  0.9996385380064652  0.9952673500212441  0.6701530454451117
  0.3362207142710858  0.9941038383927392  0.6582606704257827
  0.6628513687935822  0.9990019102875678  0.6644771341263862
  0.0818667567810536  0.5792659234429181  0.1640000972256956
  0.4198070166392966  0.5838715570876261  0.1690947882162348
  0.0947135788895395  0.9187626299200957  0.1703302255246939
  0.4154802902257799  0.9088687488206801  0.1668745888278949
  0.7436116128277916  0.9236133351746503  0.1713677966387976
  0.0829909400092177  0.2562216969780025  0.1718229031637293
  0.4218614442934481  0.2555126959755896  0.1720481099343729
  0.7540819061395894  0.2493190082499765  0.1640237356413792
  0.0835009345410214  0.5816587807983282  0.4993150007690232
  0.4212341880302404  0.5862042589388707  0.4976440812308383
  0.7441757539790075  0.5869836176960987  0.5022793240620587
  0.0858317960763486  0.9184963053339175  0.5057527399633202
  0.7484912072807859  0.9187560476225300  0.5008002030695238
  0.0897834398412058  0.2499940078012486  0.4995475755336471
  0.4168326551213255  0.2442886694757078  0.4987001908577327
  0.7443245866545283  0.2509082134931049  0.5024030180842658
  0.0840893165961702  0.5810975831637677  0.8288997401741796
  0.4152566747658426  0.5851472694440574  0.8374144177438012
  0.0782739874458827  0.9100608535109274  0.8280497250301408
  0.4206090703579051  0.9137952253077657  0.8325862088644840
  0.7493553446009642  0.9139734133415018  0.8286966802295339
  0.0746397871635551  0.2497635641108005  0.8229896809690658
  0.4242933858186504  0.2541825502838364  0.8343767076596151
  0.7479962329254803  0.2524289396998540  0.8331500908142289
  0.1307975198219893  0.4514633571012396  0.0846955363134825
  0.4695932017763695  0.4599865010159192  0.0845349239496187
  0.7888231459933266  0.4706465504023569  0.0815971846995964
  0.1356067295159917  0.7898830548779401  0.0819382853347861
  0.4752628216853481  0.7944033648081330  0.0836952953873933
  0.7849534926237425  0.7915355572332672  0.0856504607510331
  0.1352647663785191  0.1254975878466098  0.0955233461008831
  0.4599130229302375  0.1284804077762729  0.0781616429466538
  0.7849220810055968  0.1157617041112076  0.0716566902079592
  0.1346783412282804  0.4588434119844038  0.4156773091287462
  0.4667599182380826  0.4573487763639932  0.4138207571444212
  0.7991952349915294  0.4634311692366495  0.4213101080251462
  0.1367395297827940  0.7934121116230131  0.4232457665506857
  0.4657045769898787  0.8014365374728385  0.4242930122710575
  0.7988987157719762  0.7919617217474624  0.4202975012018015
  0.1403886424661067  0.1235483565014590  0.4188767386689065
  0.4600102544817304  0.1164272473827523  0.4125093287074080
  0.7914300830400194  0.1277071278778621  0.4146405849431787
  0.1373730165762410  0.4564746912320103  0.7497117531682989
  0.4672675244204427  0.4606179954592662  0.7549635975141626
  0.7927134552380366  0.4663431964082960  0.7518574068614328
  0.1361914066661072  0.7905375122638105  0.7483996983548522
  0.4659643519128451  0.7872386687223383  0.7446363426605060
  0.7845146232216749  0.7828581388214957  0.7385426237603099
  0.1273506433474694  0.1247453264802374  0.7416204476265307
  0.4666342210805041  0.1233958283255348  0.7500543469975511
  0.7951186806030677  0.1242228579815716  0.7499638391578429
  0.2926196119534055  0.6325837832169299  0.0859577540226510
  0.6227030882468938  0.6229455959547252  0.0891747841639088
  0.9498583136306777  0.6183849232662411  0.0778745248224766
  0.2856027348427190  0.9571055469377328  0.0851677168475646
  0.6199426712790199  0.9563241726520175  0.0710648862706336
  0.9585801560326530  0.9556340295585670  0.0846881788982685
  0.2899194911470957  0.2991549139223224  0.0895610738097758
  0.6187428942417057  0.2928442344114188  0.0854367724381220
  0.9452000256202879  0.2833510925284699  0.0787260501299372
  0.2859120566771551  0.6267351339903797  0.4164147111647409
  0.6132669581828267  0.6279677204827792  0.4146588846097572
  0.9484157760511920  0.6252270145206040  0.4203443607607511
  0.3043039331900488  0.9660999669840606  0.4243235045821976
  0.6143462022882176  0.9585640636951851  0.4181155420703675
  0.9504261216086149  0.9475179196857724  0.4123739872410184
  0.2868388664457555  0.2930632266238220  0.4195396683388353
  0.6134232100493193  0.2898845845833975  0.4145179814412643
  0.9503320635794381  0.2932406522749389  0.4231872116763213
  0.2827915818006446  0.6238528379306345  0.7501127343631211
  0.6332328185784775  0.6340176048542361  0.7534645166459342
  0.9491319784019510  0.6160079065250272  0.7402535789518083
  0.2876430694658012  0.9487794705355483  0.7409425467222732
  0.6144885585248048  0.9578156978575478  0.7487977894992000
  0.9436738930063555  0.9544063443568405  0.7503402273530995
  0.2875961852244586  0.2908144606906760  0.7498142665113363
  0.6144593498528792  0.2914436486999250  0.7484581407875055
  0.9393826785749440  0.2939928416205291  0.7461647434088903
  0.2105906038764118  0.3856303033731479  0.2527931415518267
  0.5461293318149743  0.3886569573261696  0.2520412013088915
  0.8749636430304903  0.3848982641695358  0.2582757646093725
  0.2099510811116829  0.7088035743420420  0.2419446602403355
  0.5402662530952256  0.7211169871997996  0.2521303704487607
  0.8648443346164854  0.7028927984025586  0.2517035460358059
  0.2221766845317674  0.0489567824955941  0.2608716897730048
  0.5379665670684872  0.0463839434223772  0.2527257537760121
  0.8724600283647064  0.0520125787925494  0.2590561684248343
  0.2105595903588764  0.3861983172015329  0.5826703192569056
  0.5422301377767340  0.3756094182487715  0.5755894639231585
  0.8693849980733717  0.3836642093014504  0.5826941296134436
  0.2093904728219798  0.7147378114355334  0.5806042741717548
  0.5501866563525297  0.7145476666880555  0.5880689641118906
  0.8725779537454983  0.7174741840331222  0.5841512189316020
  0.2105782747424030  0.0507779462401174  0.5822917674337091
  0.5339414674085106  0.0438409094214549  0.5804009425971373
  0.8738159793973495  0.0499197890513585  0.5913549714746793
  0.2091463289382531  0.3742590284070175  0.9090752090254171
  0.5471393276240804  0.3874286707505235  0.9192098511075457
  0.8726538968759527  0.3847502269868386  0.9166322733886147
  0.2074229433306911  0.7170286176818905  0.9147899037037490
  0.5428495039372905  0.7141667945757106  0.9110319688854673
  0.8632209626218526  0.7000948607150335  0.9114743564480108
  0.2074184008276561  0.0391783481255530  0.9144173743153345
  0.5456519610656159  0.0487899180713143  0.9195705831473262
  0.8730366380542876  0.0479159554473085  0.9148364204645461
  0.0487993648456566  0.5420026045400377  0.2574253839830902
  0.3756814434834794  0.5355983005679548  0.2516329703497959
  0.7114149975000075  0.5352069931221450  0.2452407049148775
  0.0415409363272659  0.8740975426681246  0.2504694220995916
  0.3724590590297296  0.8752513955227528  0.2576515219687820
  0.7096852594517173  0.8647059065005607  0.2533778692597366
  0.0511969640161425  0.2066483098098502  0.2601791070554569
  0.3764176087736075  0.1978360760153635  0.2498091844566588
  0.7152170488223248  0.2087749721818000  0.2542837000089833
  0.0417029508569087  0.5312229296995739  0.5828894236662734
  0.3706448400238571  0.5363718813424967  0.5768385618012033
  0.7019880338230848  0.5393458679298817  0.5866304081446643
  0.0418536637123381  0.8644635622995693  0.5853173277978740
  0.3810672435901239  0.8641114021537888  0.5748466067119651
  0.7048451895197942  0.8660831971954934  0.5814180816463903
  0.0483587764046263  0.2078184117835988  0.5869691805123267
  0.3784608212493126  0.2030406278134222  0.5879245635134183
  0.7025435566117366  0.1957629123162192  0.5826625726344332
  0.0332408271637092  0.5327709387505166  0.9083006028233669
  0.3764589451673075  0.5332555553712623  0.9203549912759001
  0.7078308236882052  0.5346459491382447  0.9064689316876766
  0.0454016560656285  0.8700651853341910  0.9208747831099515
  0.3773784198596815  0.8635982858949305  0.9154235646001112
  0.6988451884078160  0.8787881895690646  0.9151863991930895
  0.0342168418917979  0.1974918389567080  0.9073105452230621
  0.3837821699575201  0.2067723041382052  0.9196237569216237
  0.7055821902995305  0.1980857256161528  0.9139166395538396

  0.00000000E+00  0.00000000E+00  0.00000000E+00
  0.00000000E+00  0.00000000E+00  0.00000000E+00
  0.00000000E+00  0.00000000E+00  0.00000000E+00
  0.00000000E+00  0.00000000E+00  0.00000000E+00
  0.00000000E+00  0.00000000E+00  0.00000000E+00
  0.00000000E+00  0.00000000E+00  0.00000000E+00
  0.00000000E+00  0.00000000E+00  0.00000000E+00
  0.00000000E+00  0.00000000E+00  0.00000000E+00
  0.00000000E+00  0.00000000E+00  0.00000000E+00
  0.00000000E+00  0.00000000E+00  0.00000000E+00
  0.00000000E+00  0.00000000E+00  0.00000000E+00
  0.00000000E+00  0.00000000E+00  0.00000000E+00
  0.00000000E+00  0.00000000E+00  0.00000000E+00
  0.00000000E+00  0.00000000E+00  0.00000000E+00
  0.00000000E+00  0.00000000E+00  0.00000000E+00
  0.00000000E+00  0.00000000E+00  0.00000000E+00
  0.00000000E+00  0.00000000E+00  0.00000000E+00
  0.00000000E+00  0.00000000E+00  0.00000000E+00
  0.00000000E+00  0.00000000E+00  0.00000000E+00
  0.00000000E+00  0.00000000E+00  0.00000000E+00
  0.00000000E+00  0.00000000E+00  0.00000000E+00
  0.00000000E+00  0.00000000E+00  0.00000000E+00
  0.00000000E+00  0.00000000E+00  0.00000000E+00
  0.00000000E+00  0.00000000E+00  0.00000000E+00
  0.00000000E+00  0.00000000E+00  0.00000000E+00
  0.00000000E+00  0.00000000E+00  0.00000000E+00
  0.00000000E+00  0.00000000E+00  0.00000000E+00
  0.00000000E+00  0.00000000E+00  0.00000000E+00
  0.00000000E+00  0.00000000E+00  0.00000000E+00
  0.00000000E+00  0.00000000E+00  0.00000000E+00
  0.00000000E+00  0.00000000E+00  0.00000000E+00
  0.00000000E+00  0.00000000E+00  0.00000000E+00
  0.00000000E+00  0.00000000E+00  0.00000000E+00
  0.00000000E+00  0.00000000E+00  0.00000000E+00
  0.00000000E+00  0.00000000E+00  0.00000000E+00
  0.00000000E+00  0.00000000E+00  0.00000000E+00
  0.00000000E+00  0.00000000E+00  0.00000000E+00
  0.00000000E+00  0.00000000E+00  0.00000000E+00
  0.00000000E+00  0.00000000E+00  0.00000000E+00
  0.00000000E+00  0.00000000E+00  0.00000000E+00
  0.00000000E+00  0.00000000E+00  0.00000000E+00
  0.00000000E+00  0.00000000E+00  0.00000000E+00
  0.00000000E+00  0.00000000E+00  0.00000000E+00
  0.00000000E+00  0.00000000E+00  0.00000000E+00
  0.00000000E+00  0.00000000E+00  0.00000000E+00
  0.00000000E+00  0.00000000E+00  0.00000000E+00
  0.00000000E+00  0.00000000E+00  0.00000000E+00
  0.00000000E+00  0.00000000E+00  0.00000000E+00
  0.00000000E+00  0.00000000E+00  0.00000000E+00
  0.00000000E+00  0.00000000E+00  0.00000000E+00
  0.00000000E+00  0.00000000E+00  0.00000000E+00
  0.00000000E+00  0.00000000E+00  0.00000000E+00
  0.00000000E+00  0.00000000E+00  0.00000000E+00
  0.00000000E+00  0.00000000E+00  0.00000000E+00
  0.00000000E+00  0.00000000E+00  0.00000000E+00
  0.00000000E+00  0.00000000E+00  0.00000000E+00
  0.00000000E+00  0.00000000E+00  0.00000000E+00
  0.00000000E+00  0.00000000E+00  0.00000000E+00
  0.00000000E+00  0.00000000E+00  0.00000000E+00
  0.00000000E+00  0.00000000E+00  0.00000000E+00
  0.00000000E+00  0.00000000E+00  0.00000000E+00
  0.00000000E+00  0.00000000E+00  0.00000000E+00
  0.00000000E+00  0.00000000E+00  0.00000000E+00
  0.00000000E+00  0.00000000E+00  0.00000000E+00
  0.00000000E+00  0.00000000E+00  0.00000000E+00
  0.00000000E+00  0.00000000E+00  0.00000000E+00
  0.00000000E+00  0.00000000E+00  0.00000000E+00
  0.00000000E+00  0.00000000E+00  0.00000000E+00
  0.00000000E+00  0.00000000E+00  0.00000000E+00
  0.00000000E+00  0.00000000E+00  0.00000000E+00
  0.00000000E+00  0.00000000E+00  0.00000000E+00
  0.00000000E+00  0.00000000E+00  0.00000000E+00
  0.00000000E+00  0.00000000E+00  0.00000000E+00
  0.00000000E+00  0.00000000E+00  0.00000000E+00
  0.00000000E+00  0.00000000E+00  0.00000000E+00
  0.00000000E+00  0.00000000E+00  0.00000000E+00
  0.00000000E+00  0.00000000E+00  0.00000000E+00
  0.00000000E+00  0.00000000E+00  0.00000000E+00
  0.00000000E+00  0.00000000E+00  0.00000000E+00
  0.00000000E+00  0.00000000E+00  0.00000000E+00
  0.00000000E+00  0.00000000E+00  0.00000000E+00
  0.00000000E+00  0.00000000E+00  0.00000000E+00
  0.00000000E+00  0.00000000E+00  0.00000000E+00
  0.00000000E+00  0.00000000E+00  0.00000000E+00
  0.00000000E+00  0.00000000E+00  0.00000000E+00
  0.00000000E+00  0.00000000E+00  0.00000000E+00
  0.00000000E+00  0.00000000E+00  0.00000000E+00
  0.00000000E+00  0.00000000E+00  0.00000000E+00
  0.00000000E+00  0.00000000E+00  0.00000000E+00
  0.00000000E+00  0.00000000E+00  0.00000000E+00
  0.00000000E+00  0.00000000E+00  0.00000000E+00
  0.00000000E+00  0.00000000E+00  0.00000000E+00
  0.00000000E+00  0.00000000E+00  0.00000000E+00
  0.00000000E+00  0.00000000E+00  0.00000000E+00
  0.00000000E+00  0.00000000E+00  0.00000000E+00
  0.00000000E+00  0.00000000E+00  0.00000000E+00
  0.00000000E+00  0.00000000E+00  0.00000000E+00
  0.00000000E+00  0.00000000E+00  0.00000000E+00
  0.00000000E+00  0.00000000E+00  0.00000000E+00
  0.00000000E+00  0.00000000E+00  0.00000000E+00
  0.00000000E+00  0.00000000E+00  0.00000000E+00
  0.00000000E+00  0.00000000E+00  0.00000000E+00
  0.00000000E+00  0.00000000E+00  0.00000000E+00
  0.00000000E+00  0.00000000E+00  0.00000000E+00
  0.00000000E+00  0.00000000E+00  0.00000000E+00
  0.00000000E+00  0.00000000E+00  0.00000000E+00
  0.00000000E+00  0.00000000E+00  0.00000000E+00
  0.00000000E+00  0.00000000E+00  0.00000000E+00
  0.00000000E+00  0.00000000E+00  0.00000000E+00
  0.00000000E+00  0.00000000E+00  0.00000000E+00
  0.00000000E+00  0.00000000E+00  0.00000000E+00
  0.00000000E+00  0.00000000E+00  0.00000000E+00
  0.00000000E+00  0.00000000E+00  0.00000000E+00
  0.00000000E+00  0.00000000E+00  0.00000000E+00
  0.00000000E+00  0.00000000E+00  0.00000000E+00
  0.00000000E+00  0.00000000E+00  0.00000000E+00
  0.00000000E+00  0.00000000E+00  0.00000000E+00
  0.00000000E+00  0.00000000E+00  0.00000000E+00
  0.00000000E+00  0.00000000E+00  0.00000000E+00
  0.00000000E+00  0.00000000E+00  0.00000000E+00
  0.00000000E+00  0.00000000E+00  0.00000000E+00
  0.00000000E+00  0.00000000E+00  0.00000000E+00
  0.00000000E+00  0.00000000E+00  0.00000000E+00
  0.00000000E+00  0.00000000E+00  0.00000000E+00
  0.00000000E+00  0.00000000E+00  0.00000000E+00
  0.00000000E+00  0.00000000E+00  0.00000000E+00
  0.00000000E+00  0.00000000E+00  0.00000000E+00
  0.00000000E+00  0.00000000E+00  0.00000000E+00
  0.00000000E+00  0.00000000E+00  0.00000000E+00
  0.00000000E+00  0.00000000E+00  0.00000000E+00
  0.00000000E+00  0.00000000E+00  0.00000000E+00
  0.00000000E+00  0.00000000E+00  0.00000000E+00
  0.00000000E+00  0.00000000E+00  0.00000000E+00
  0.00000000E+00  0.00000000E+00  0.00000000E+00
  0.00000000E+00  0.00000000E+00  0.00000000E+00
  0.00000000E+00  0.00000000E+00  0.00000000E+00
  0.00000000E+00  0.00000000E+00  0.00000000E+00
  0.00000000E+00  0.00000000E+00  0.00000000E+00
  0.00000000E+00  0.00000000E+00  0.00000000E+00
  0.00000000E+00  0.00000000E+00  0.00000000E+00
  0.00000000E+00  0.00000000E+00  0.00000000E+00
  0.00000000E+00  0.00000000E+00  0.00000000E+00
  0.00000000E+00  0.00000000E+00  0.00000000E+00
  0.00000000E+00  0.00000000E+00  0.00000000E+00
  0.00000000E+00  0.00000000E+00  0.00000000E+00
  0.00000000E+00  0.00000000E+00  0.00000000E+00
  0.00000000E+00  0.00000000E+00  0.00000000E+00
  0.00000000E+00  0.00000000E+00  0.00000000E+00
  0.00000000E+00  0.00000000E+00  0.00000000E+00
  0.00000000E+00  0.00000000E+00  0.00000000E+00
  0.00000000E+00  0.00000000E+00  0.00000000E+00
  0.00000000E+00  0.00000000E+00  0.00000000E+00
  0.00000000E+00  0.00000000E+00  0.00000000E+00
  0.00000000E+00  0.00000000E+00  0.00000000E+00
  0.00000000E+00  0.00000000E+00  0.00000000E+00
  0.00000000E+00  0.00000000E+00  0.00000000E+00
  0.00000000E+00  0.00000000E+00  0.00000000E+00
  0.00000000E+00  0.00000000E+00  0.00000000E+00
  0.00000000E+00  0.00000000E+00  0.00000000E+00
  0.00000000E+00  0.00000000E+00  0.00000000E+00
  0.00000000E+00  0.00000000E+00  0.00000000E+00
  0.00000000E+00  0.00000000E+00  0.00000000E+00
  0.00000000E+00  0.00000000E+00  0.00000000E+00
  0.00000000E+00  0.00000000E+00  0.00000000E+00
  0.00000000E+00  0.00000000E+00  0.00000000E+00
  0.00000000E+00  0.00000000E+00  0.00000000E+00
  0.00000000E+00  0.00000000E+00  0.00000000E+00
  0.00000000E+00  0.00000000E+00  0.00000000E+00
  0.00000000E+00  0.00000000E+00  0.00000000E+00
  0.00000000E+00  0.00000000E+00  0.00000000E+00
  0.00000000E+00  0.00000000E+00  0.00000000E+00
  0.00000000E+00  0.00000000E+00  0.00000000E+00
  0.00000000E+00  0.00000000E+00  0.00000000E+00
  0.00000000E+00  0.00000000E+00  0.00000000E+00
  0.00000000E+00  0.00000000E+00  0.00000000E+00
  0.00000000E+00  0.00000000E+00  0.00000000E+00
  0.00000000E+00  0.00000000E+00  0.00000000E+00
  0.00000000E+00  0.00000000E+00  0.00000000E+00
  0.00000000E+00  0.00000000E+00  0.00000000E+00
  0.00000000E+00  0.00000000E+00  0.00000000E+00
  0.00000000E+00  0.00000000E+00  0.00000000E+00
  0.00000000E+00  0.00000000E+00  0.00000000E+00
  0.00000000E+00  0.00000000E+00  0.00000000E+00
  0.00000000E+00  0.00000000E+00  0.00000000E+00
  0.00000000E+00  0.00000000E+00  0.00000000E+00
  0.00000000E+00  0.00000000E+00  0.00000000E+00
  0.00000000E+00  0.00000000E+00  0.00000000E+00
  0.00000000E+00  0.00000000E+00  0.00000000E+00
  0.00000000E+00  0.00000000E+00  0.00000000E+00
  0.00000000E+00  0.00000000E+00  0.00000000E+00
  0.00000000E+00  0.00000000E+00  0.00000000E+00
  0.00000000E+00  0.00000000E+00  0.00000000E+00
  0.00000000E+00  0.00000000E+00  0.00000000E+00
  0.00000000E+00  0.00000000E+00  0.00000000E+00
  0.00000000E+00  0.00000000E+00  0.00000000E+00
  0.00000000E+00  0.00000000E+00  0.00000000E+00
  0.00000000E+00  0.00000000E+00  0.00000000E+00
  0.00000000E+00  0.00000000E+00  0.00000000E+00
  0.00000000E+00  0.00000000E+00  0.00000000E+00
  0.00000000E+00  0.00000000E+00  0.00000000E+00
  0.00000000E+00  0.00000000E+00  0.00000000E+00
  0.00000000E+00  0.00000000E+00  0.00000000E+00
  0.00000000E+00  0.00000000E+00  0.00000000E+00
  0.00000000E+00  0.00000000E+00  0.00000000E+00
  0.00000000E+00  0.00000000E+00  0.00000000E+00
  0.00000000E+00  0.00000000E+00  0.00000000E+00
  0.00000000E+00  0.00000000E+00  0.00000000E+00
  0.00000000E+00  0.00000000E+00  0.00000000E+00
  0.00000000E+00  0.00000000E+00  0.00000000E+00
  0.00000000E+00  0.00000000E+00  0.00000000E+00
  0.00000000E+00  0.00000000E+00  0.00000000E+00
  0.00000000E+00  0.00000000E+00  0.00000000E+00
  0.00000000E+00  0.00000000E+00  0.00000000E+00
  0.00000000E+00  0.00000000E+00  0.00000000E+00
  0.00000000E+00  0.00000000E+00  0.00000000E+00
  0.00000000E+00  0.00000000E+00  0.00000000E+00
