In24 Ga30 Cu30 Ag24 Se108               
   1.0000000000000000     
    16.1336540668713511   -0.0004847643587715   -7.2855992645862706
    -3.3074151999466896   15.7975464379561572   -7.3054403348196333
     0.0145916982723158    0.0168693598448241   21.4479119229365160
   In   Ga   Cu   Ag   Se
    24    30    30    24   108
Direct
  0.1652960263005170  0.4976850831997055  0.9982716479450744
  0.5059434423585216  0.5061044110215960  0.0032197627715789
  0.1670870311383155  0.8353822964364142  0.9972096594296218
  0.5004930452059639  0.8302157091000240  0.9992716598000371
  0.8317947479470220  0.1635265543154389  0.9993279347005526
  0.1658026490223392  0.5010516812452224  0.3356076568130533
  0.1627066197490805  0.8316392708937670  0.3310093123564641
  0.8310322736175380  0.8302927888252043  0.3294899652126730
  0.1628085622840700  0.1651629302543682  0.3316865376047531
  0.4973605868977415  0.1644409311510842  0.3308245656256688
  0.8289488065951858  0.5037585694187356  0.6667079015331083
  0.1677126528675572  0.8352523802579981  0.6674058106709566
  0.5024795156341710  0.1657289321392739  0.6695988774207251
  0.8330631781039983  0.1702810993229704  0.6717060777046697
  0.2499342908129591  0.7525751162033458  0.1667771314798614
  0.2507856720982033  0.0796952543847667  0.1654555938584323
  0.5872563116217719  0.0786231455447322  0.1643818849429977
  0.5832400888646561  0.4215733940839783  0.4993080184895859
  0.5815119083048330  0.7450928979320963  0.4983585745198198
  0.2505730887725548  0.0806405980859779  0.5016526280939573
  0.5812832993209369  0.0831306986982554  0.4971627621475037
  0.9186801013223302  0.0833580641178813  0.5003168598597654
  0.5917912738591937  0.4219123849570963  0.8320738947079462
  0.5884907031752959  0.7509766249234815  0.8330104780578367
  0.8333423972807665  0.5056879114806776  0.0044444946558215
  0.8334854160628140  0.8381906778569075  0.0027127491702288
  0.1621777290436057  0.1599541603345784  0.9972546608886788
  0.4998906197465942  0.1616436211598113  0.9993427738326446
  0.4976573585444370  0.4965866628975633  0.3283887022301357
  0.8351874353532764  0.5080124170791152  0.3349233042218174
  0.5056806873569428  0.8382513335424164  0.3329941332795840
  0.8328534230807421  0.1640215769909403  0.3329260449511935
  0.1690423351797605  0.4994933239788111  0.6661400051763806
  0.5019261716727641  0.4975520521455721  0.6633461848554987
  0.4974184906457424  0.8330912526833458  0.6676217071759041
  0.8320023036707411  0.8320645629705794  0.6665340730158533
  0.1729145923343438  0.1647130499539813  0.6718855227029081
  0.2471137748423970  0.4141367237290439  0.1671221258984943
  0.5865530125571894  0.4182060183185570  0.1687421438638594
  0.9147171274731960  0.4257046440382624  0.1698233904349067
  0.5872377872116630  0.7552372240826131  0.1697249675229813
  0.9150128880010229  0.7487022578344167  0.1646237922946199
  0.9117872790586645  0.0791637969497998  0.1665337568421137
  0.2523875798421642  0.4176159240958981  0.5002689088457117
  0.9138047803077356  0.4146096785872828  0.4963081818457695
  0.2536957802222659  0.7511541335744809  0.5007809981172713
  0.9112892910029018  0.7498555321177847  0.4987978969454829
  0.2515176335119875  0.4173247479833364  0.8313613661091210
  0.9080393848486139  0.4204980749732030  0.8366813987886701
  0.2515491150018647  0.7505006409304045  0.8316463667148639
  0.9073650031553271  0.7538734257744153  0.8334718903734952
  0.2551008590350818  0.0804280403732420  0.8357813983646381
  0.5830770365507973  0.0755764208615517  0.8343001992786512
  0.9139854470333688  0.0767360185441817  0.8333628412872827
  0.3386776856311258  0.6687235242305434  0.9983307749354040
  0.6760521863815256  0.6735442599437249  0.0088973192014592
  0.9911050931808489  0.9958269015716468  0.9993032653451976
  0.3336680981124189  0.9936324509726688  0.9944443336619031
  0.6661689841571174  0.9965803013985450  0.9972411675809028
  0.9947421669720313  0.3305136374095312  0.3325082556460472
  0.3339370207557906  0.3413402766665286  0.3362928735291533
  0.9982305968469873  0.6668883007716815  0.3315213646562896
  0.6665618503251522  0.6581739227898566  0.3284420358230662
  0.9930000736467264  0.9958742207996920  0.3245219507662824
  0.3301266737847612  0.9927847302511665  0.3296856035764151
  0.6681566591605730  0.0008670570880938  0.3287251358495951
  0.3311832138122810  0.3364262174359993  0.6682560681464054
  0.6727389025247490  0.3349753053502837  0.6692063868768727
  0.6655785393830698  0.6697981359893319  0.6675046237116575
  0.0025399985261387  0.0010337176601425  0.6710333191980098
  0.3377740638550151  0.9927621486170395  0.6687937845706173
  0.0763084231185687  0.5811485367942240  0.1660870141244146
  0.7521626406924042  0.5868943832546449  0.1689587714233767
  0.0764261912302118  0.9196731518187136  0.1671012815232942
  0.4182661547331676  0.9120125143151796  0.1662863828748655
  0.7543455581858254  0.9155888938297423  0.1661599365565891
  0.4209379150760313  0.5848600397364478  0.5009017781440193
  0.7460420247860782  0.5872608247400493  0.4956650720130256
  0.4141301839627118  0.9119682856495643  0.4989429790244273
  0.7509713591298066  0.2457809627419749  0.4973930672402318
  0.7464098966240869  0.5844616208896838  0.8337281065630080
  0.4212040642635273  0.9230140121951393  0.8377499364071141
  0.7512764800780261  0.9125396916281616  0.8324917966031649
  0.7508344578373709  0.2535622226885579  0.8382326438740861
  0.9996829379746970  0.3341493068963715  0.9981715004118357
  0.3380018368378117  0.3326291308259428  0.0026152348986841
  0.6705325802096596  0.3302340211404768  0.0044765658236798
  0.9916340278629434  0.6740935212544201  0.9992850786039753
  0.6750257895972354  0.3436461141399008  0.3400330977279253
  0.3364256540877903  0.6672643368526892  0.3341521413122166
  0.9965086812353334  0.3368978036017793  0.6651173211482728
  0.9950728134554225  0.6644510203191345  0.6621359719036377
  0.3400621636419316  0.6624321000365541  0.6618586338334254
  0.6679029416694533  0.0040873253275393  0.6759858083034018
  0.4191633137563784  0.5942465700187682  0.1712446974956663
  0.0814043705379319  0.2447516000777199  0.1633952204747473
  0.4136780811703176  0.2474198147611304  0.1594566124548606
  0.7606205639548875  0.2567482999110453  0.1710187418380897
  0.0767300924966392  0.5808299884684729  0.4959433622356997
  0.0858804368393606  0.9161776443373668  0.5040147925357346
  0.7502070504771865  0.9152098244560634  0.4998123434456900
  0.0858918973982199  0.2565234227175068  0.5016879671907830
  0.4175965319941639  0.2557890513084331  0.5026170817226543
  0.0866081773792970  0.5848939327986926  0.8356752010532347
  0.4145637142824938  0.5815690428986997  0.8283944114129227
  0.0805822482188603  0.9225607365644066  0.8361575465489537
  0.0808394958491832  0.2421929184171461  0.8302659702323254
  0.4158878654421940  0.2464523399118619  0.8293849827711952
  0.1283222829958106  0.4646506793702301  0.0938775322195653
  0.4674519462340925  0.4609182334386759  0.0910296803320705
  0.7932419420056505  0.4670437452191791  0.0882131990523547
  0.1208551438005614  0.8032643044367589  0.0877965337922930
  0.4574832386984511  0.7880643834872387  0.0881111797431444
  0.7943690065621780  0.7948522430861829  0.0854124297396197
  0.1156919722669514  0.1114111143592211  0.0712643904880323
  0.4535790290974688  0.1143256919553579  0.0731923245001980
  0.7880120217991831  0.1143960983347085  0.0829749993425040
  0.1219695264543432  0.4455989712990061  0.4161180297084428
  0.4515413806629951  0.4631226557645078  0.4113247597930254
  0.8022028087671345  0.4741513046955177  0.4239980481686700
  0.1247798098556601  0.7815597283400493  0.4171066851086138
  0.4609406843345099  0.8017626294827096  0.4151531304782310
  0.7862800279895197  0.7796546847739876  0.4122387788950661
  0.1143507629666303  0.1143900317157787  0.4117031815110295
  0.4445405652771655  0.1173326850136149  0.4102978080985267
  0.7853805386488943  0.1250481843631661  0.4123804816233942
  0.1335700255513075  0.4589086473075028  0.7488641466588888
  0.4558504746313190  0.4528286285133731  0.7391028349554460
  0.7855517882139864  0.4607783806697867  0.7555053234025664
  0.1284423539487065  0.7906618241733909  0.7551903854970092
  0.4576320980529829  0.8019645257506625  0.7536105039211520
  0.7865666654377250  0.7919520096423014  0.7476212935494146
  0.1308084449853126  0.1139549633010333  0.7482236969810501
  0.4597126658702066  0.1102726514722647  0.7506458492731269
  0.7967218849546072  0.1329882792289112  0.7652659173548884
  0.2927352255900715  0.6290286427739389  0.0749005078618765
  0.6373880415960187  0.6371754981357540  0.0923205013233854
  0.9577637633148584  0.6242136864348282  0.0876127135287490
  0.3062012528892382  0.9572557569809845  0.0825937774466325
  0.6371720812632375  0.9532087528005135  0.0804203498432443
  0.9580747629789030  0.9600826785840866  0.0855380903959215
  0.2755257830597913  0.2888097993947412  0.0788932564665004
  0.6174791696664315  0.2884507038020345  0.0862653046459627
  0.9524679213887595  0.3017823250724945  0.0893325475287767
  0.2993654415383702  0.6287837704219257  0.4271591896584184
  0.6231696923554679  0.6158623117391997  0.4065982037305673
  0.9531630418296331  0.6328194670227987  0.4128350918344523
  0.3000338889955501  0.9543148763220657  0.4157678413270531
  0.6274199914093188  0.9584313435951373  0.4078286979601558
  0.9618159008728568  0.9579969316053223  0.4097277677059452
  0.2902702590671495  0.2994530506680348  0.4140231019564240
  0.6315562705934710  0.2892084721810448  0.4208302711172465
  0.9503271190283940  0.2917701583650185  0.4112859569048339
  0.2838333937423201  0.6265386154047832  0.7454110512826801
  0.6278262739722535  0.6177181733831105  0.7436412555794547
  0.9552579659995715  0.6358943756401629  0.7584609488772358
  0.3017539720909070  0.9625061751036696  0.7561432291155157
  0.6239573575947475  0.9507163347570327  0.7567499097753014
  0.9497221254362316  0.9590209869980200  0.7441298821245894
  0.2884979695767527  0.2946075217657977  0.7465988127410199
  0.6383881596491960  0.2898879450341383  0.7494233250440558
  0.9559401408142705  0.3049295284258164  0.7591258128614129
  0.2131597782406018  0.3730973536687756  0.2501666741897992
  0.5426569701085313  0.3791742111980838  0.2487958832794632
  0.8852123489357027  0.3894803815444945  0.2592518212922101
  0.1987578039424776  0.6974855680923397  0.2427263042066414
  0.5545332331655075  0.7176749041742454  0.2574195954171259
  0.8783604056161494  0.7017561082263910  0.2451700888520776
  0.2058600390239178  0.0293354750557242  0.2490109934796720
  0.5403222753799426  0.0300496055265285  0.2467853295068565
  0.8723652675524463  0.0389608312396561  0.2497390854373265
  0.2188103624729720  0.3829666550575510  0.5884715206850188
  0.5525006264625816  0.3785937395984291  0.5924732956325798
  0.8653712969980347  0.3711367539614088  0.5720467365791606
  0.2096061125788040  0.7084516042880296  0.5774808107894316
  0.5386121066588743  0.7061552378336131  0.5893674849998192
  0.8651739252667738  0.7089936515634392  0.5776957878874498
  0.2190999677946550  0.0423995177133065  0.5971532722035988
  0.5351439430616622  0.0311928311099479  0.5779073352279340
  0.8833808482496721  0.0411558616060148  0.5913890734898715
  0.2106354493756726  0.3726510998862480  0.9092917162330423
  0.5451498637075503  0.3760778823025674  0.9149595678269264
  0.8653501727049999  0.3798992382389059  0.9173494760060805
  0.2212302424110746  0.7096302190779227  0.9172468088070715
  0.5527498890893199  0.7019549665221874  0.9208783589224794
  0.8599718630616806  0.7127000253375257  0.9109988497996895
  0.2166204387529973  0.0452719924101643  0.9218554249051678
  0.5456837749285057  0.0398519698201838  0.9208149140107764
  0.8738057397576213  0.0305282797510884  0.9119158214216299
  0.0365865681706552  0.5474721723638325  0.2488615800121892
  0.3730476849373616  0.5314849593257023  0.2462521143929379
  0.7097578703291703  0.5413869111801617  0.2471898455198698
  0.0320935632117383  0.8760037280810522  0.2434641057060603
  0.3825575426494581  0.8813935205823284  0.2535362476424083
  0.7048161476107779  0.8808999209299060  0.2444558775799521
  0.0269162846595918  0.2065261394598039  0.2476826206464935
  0.3702425317158742  0.2190560017670009  0.2544391542669970
  0.7156133939134790  0.2083348129038072  0.2553608305936024
  0.0403952954853679  0.5302657994783360  0.5830220695338895
  0.3812254075873369  0.5329396957405521  0.5751964990665286
  0.7070982145517277  0.5572760081045942  0.5812377001999707
  0.0292440509903713  0.8749712016411806  0.5848834400482588
  0.3760379236528379  0.8752823338355284  0.5826491231660569
  0.7114867525993844  0.8737408194761613  0.5893752466222892
  0.0532304788771398  0.2070877063827297  0.5918713550962451
  0.3726571416249271  0.2170605725322829  0.5909051063166544
  0.7086408526522092  0.2176087582067865  0.5822352106914863
  0.0308239037037694  0.5385380861113518  0.9144097608168025
  0.3692456186170574  0.5428490755662523  0.9164195404426749
  0.7179823281079862  0.5566572237851801  0.9262404393051682
  0.0278886993496101  0.8759180498765318  0.9166357582941060
  0.3718845686345915  0.8752374979379169  0.9099532507991270
  0.7167037071981142  0.8840380615442243  0.9214058419352540
  0.0378190747162037  0.1953486189348155  0.9154537150818811
  0.3778162629225790  0.1991932765303446  0.9170209497523203
  0.7011632912077133  0.2000280826824010  0.9066475722983967

  0.00000000E+00  0.00000000E+00  0.00000000E+00
  0.00000000E+00  0.00000000E+00  0.00000000E+00
  0.00000000E+00  0.00000000E+00  0.00000000E+00
  0.00000000E+00  0.00000000E+00  0.00000000E+00
  0.00000000E+00  0.00000000E+00  0.00000000E+00
  0.00000000E+00  0.00000000E+00  0.00000000E+00
  0.00000000E+00  0.00000000E+00  0.00000000E+00
  0.00000000E+00  0.00000000E+00  0.00000000E+00
  0.00000000E+00  0.00000000E+00  0.00000000E+00
  0.00000000E+00  0.00000000E+00  0.00000000E+00
  0.00000000E+00  0.00000000E+00  0.00000000E+00
  0.00000000E+00  0.00000000E+00  0.00000000E+00
  0.00000000E+00  0.00000000E+00  0.00000000E+00
  0.00000000E+00  0.00000000E+00  0.00000000E+00
  0.00000000E+00  0.00000000E+00  0.00000000E+00
  0.00000000E+00  0.00000000E+00  0.00000000E+00
  0.00000000E+00  0.00000000E+00  0.00000000E+00
  0.00000000E+00  0.00000000E+00  0.00000000E+00
  0.00000000E+00  0.00000000E+00  0.00000000E+00
  0.00000000E+00  0.00000000E+00  0.00000000E+00
  0.00000000E+00  0.00000000E+00  0.00000000E+00
  0.00000000E+00  0.00000000E+00  0.00000000E+00
  0.00000000E+00  0.00000000E+00  0.00000000E+00
  0.00000000E+00  0.00000000E+00  0.00000000E+00
  0.00000000E+00  0.00000000E+00  0.00000000E+00
  0.00000000E+00  0.00000000E+00  0.00000000E+00
  0.00000000E+00  0.00000000E+00  0.00000000E+00
  0.00000000E+00  0.00000000E+00  0.00000000E+00
  0.00000000E+00  0.00000000E+00  0.00000000E+00
  0.00000000E+00  0.00000000E+00  0.00000000E+00
  0.00000000E+00  0.00000000E+00  0.00000000E+00
  0.00000000E+00  0.00000000E+00  0.00000000E+00
  0.00000000E+00  0.00000000E+00  0.00000000E+00
  0.00000000E+00  0.00000000E+00  0.00000000E+00
  0.00000000E+00  0.00000000E+00  0.00000000E+00
  0.00000000E+00  0.00000000E+00  0.00000000E+00
  0.00000000E+00  0.00000000E+00  0.00000000E+00
  0.00000000E+00  0.00000000E+00  0.00000000E+00
  0.00000000E+00  0.00000000E+00  0.00000000E+00
  0.00000000E+00  0.00000000E+00  0.00000000E+00
  0.00000000E+00  0.00000000E+00  0.00000000E+00
  0.00000000E+00  0.00000000E+00  0.00000000E+00
  0.00000000E+00  0.00000000E+00  0.00000000E+00
  0.00000000E+00  0.00000000E+00  0.00000000E+00
  0.00000000E+00  0.00000000E+00  0.00000000E+00
  0.00000000E+00  0.00000000E+00  0.00000000E+00
  0.00000000E+00  0.00000000E+00  0.00000000E+00
  0.00000000E+00  0.00000000E+00  0.00000000E+00
  0.00000000E+00  0.00000000E+00  0.00000000E+00
  0.00000000E+00  0.00000000E+00  0.00000000E+00
  0.00000000E+00  0.00000000E+00  0.00000000E+00
  0.00000000E+00  0.00000000E+00  0.00000000E+00
  0.00000000E+00  0.00000000E+00  0.00000000E+00
  0.00000000E+00  0.00000000E+00  0.00000000E+00
  0.00000000E+00  0.00000000E+00  0.00000000E+00
  0.00000000E+00  0.00000000E+00  0.00000000E+00
  0.00000000E+00  0.00000000E+00  0.00000000E+00
  0.00000000E+00  0.00000000E+00  0.00000000E+00
  0.00000000E+00  0.00000000E+00  0.00000000E+00
  0.00000000E+00  0.00000000E+00  0.00000000E+00
  0.00000000E+00  0.00000000E+00  0.00000000E+00
  0.00000000E+00  0.00000000E+00  0.00000000E+00
  0.00000000E+00  0.00000000E+00  0.00000000E+00
  0.00000000E+00  0.00000000E+00  0.00000000E+00
  0.00000000E+00  0.00000000E+00  0.00000000E+00
  0.00000000E+00  0.00000000E+00  0.00000000E+00
  0.00000000E+00  0.00000000E+00  0.00000000E+00
  0.00000000E+00  0.00000000E+00  0.00000000E+00
  0.00000000E+00  0.00000000E+00  0.00000000E+00
  0.00000000E+00  0.00000000E+00  0.00000000E+00
  0.00000000E+00  0.00000000E+00  0.00000000E+00
  0.00000000E+00  0.00000000E+00  0.00000000E+00
  0.00000000E+00  0.00000000E+00  0.00000000E+00
  0.00000000E+00  0.00000000E+00  0.00000000E+00
  0.00000000E+00  0.00000000E+00  0.00000000E+00
  0.00000000E+00  0.00000000E+00  0.00000000E+00
  0.00000000E+00  0.00000000E+00  0.00000000E+00
  0.00000000E+00  0.00000000E+00  0.00000000E+00
  0.00000000E+00  0.00000000E+00  0.00000000E+00
  0.00000000E+00  0.00000000E+00  0.00000000E+00
  0.00000000E+00  0.00000000E+00  0.00000000E+00
  0.00000000E+00  0.00000000E+00  0.00000000E+00
  0.00000000E+00  0.00000000E+00  0.00000000E+00
  0.00000000E+00  0.00000000E+00  0.00000000E+00
  0.00000000E+00  0.00000000E+00  0.00000000E+00
  0.00000000E+00  0.00000000E+00  0.00000000E+00
  0.00000000E+00  0.00000000E+00  0.00000000E+00
  0.00000000E+00  0.00000000E+00  0.00000000E+00
  0.00000000E+00  0.00000000E+00  0.00000000E+00
  0.00000000E+00  0.00000000E+00  0.00000000E+00
  0.00000000E+00  0.00000000E+00  0.00000000E+00
  0.00000000E+00  0.00000000E+00  0.00000000E+00
  0.00000000E+00  0.00000000E+00  0.00000000E+00
  0.00000000E+00  0.00000000E+00  0.00000000E+00
  0.00000000E+00  0.00000000E+00  0.00000000E+00
  0.00000000E+00  0.00000000E+00  0.00000000E+00
  0.00000000E+00  0.00000000E+00  0.00000000E+00
  0.00000000E+00  0.00000000E+00  0.00000000E+00
  0.00000000E+00  0.00000000E+00  0.00000000E+00
  0.00000000E+00  0.00000000E+00  0.00000000E+00
  0.00000000E+00  0.00000000E+00  0.00000000E+00
  0.00000000E+00  0.00000000E+00  0.00000000E+00
  0.00000000E+00  0.00000000E+00  0.00000000E+00
  0.00000000E+00  0.00000000E+00  0.00000000E+00
  0.00000000E+00  0.00000000E+00  0.00000000E+00
  0.00000000E+00  0.00000000E+00  0.00000000E+00
  0.00000000E+00  0.00000000E+00  0.00000000E+00
  0.00000000E+00  0.00000000E+00  0.00000000E+00
  0.00000000E+00  0.00000000E+00  0.00000000E+00
  0.00000000E+00  0.00000000E+00  0.00000000E+00
  0.00000000E+00  0.00000000E+00  0.00000000E+00
  0.00000000E+00  0.00000000E+00  0.00000000E+00
  0.00000000E+00  0.00000000E+00  0.00000000E+00
  0.00000000E+00  0.00000000E+00  0.00000000E+00
  0.00000000E+00  0.00000000E+00  0.00000000E+00
  0.00000000E+00  0.00000000E+00  0.00000000E+00
  0.00000000E+00  0.00000000E+00  0.00000000E+00
  0.00000000E+00  0.00000000E+00  0.00000000E+00
  0.00000000E+00  0.00000000E+00  0.00000000E+00
  0.00000000E+00  0.00000000E+00  0.00000000E+00
  0.00000000E+00  0.00000000E+00  0.00000000E+00
  0.00000000E+00  0.00000000E+00  0.00000000E+00
  0.00000000E+00  0.00000000E+00  0.00000000E+00
  0.00000000E+00  0.00000000E+00  0.00000000E+00
  0.00000000E+00  0.00000000E+00  0.00000000E+00
  0.00000000E+00  0.00000000E+00  0.00000000E+00
  0.00000000E+00  0.00000000E+00  0.00000000E+00
  0.00000000E+00  0.00000000E+00  0.00000000E+00
  0.00000000E+00  0.00000000E+00  0.00000000E+00
  0.00000000E+00  0.00000000E+00  0.00000000E+00
  0.00000000E+00  0.00000000E+00  0.00000000E+00
  0.00000000E+00  0.00000000E+00  0.00000000E+00
  0.00000000E+00  0.00000000E+00  0.00000000E+00
  0.00000000E+00  0.00000000E+00  0.00000000E+00
  0.00000000E+00  0.00000000E+00  0.00000000E+00
  0.00000000E+00  0.00000000E+00  0.00000000E+00
  0.00000000E+00  0.00000000E+00  0.00000000E+00
  0.00000000E+00  0.00000000E+00  0.00000000E+00
  0.00000000E+00  0.00000000E+00  0.00000000E+00
  0.00000000E+00  0.00000000E+00  0.00000000E+00
  0.00000000E+00  0.00000000E+00  0.00000000E+00
  0.00000000E+00  0.00000000E+00  0.00000000E+00
  0.00000000E+00  0.00000000E+00  0.00000000E+00
  0.00000000E+00  0.00000000E+00  0.00000000E+00
  0.00000000E+00  0.00000000E+00  0.00000000E+00
  0.00000000E+00  0.00000000E+00  0.00000000E+00
  0.00000000E+00  0.00000000E+00  0.00000000E+00
  0.00000000E+00  0.00000000E+00  0.00000000E+00
  0.00000000E+00  0.00000000E+00  0.00000000E+00
  0.00000000E+00  0.00000000E+00  0.00000000E+00
  0.00000000E+00  0.00000000E+00  0.00000000E+00
  0.00000000E+00  0.00000000E+00  0.00000000E+00
  0.00000000E+00  0.00000000E+00  0.00000000E+00
  0.00000000E+00  0.00000000E+00  0.00000000E+00
  0.00000000E+00  0.00000000E+00  0.00000000E+00
  0.00000000E+00  0.00000000E+00  0.00000000E+00
  0.00000000E+00  0.00000000E+00  0.00000000E+00
  0.00000000E+00  0.00000000E+00  0.00000000E+00
  0.00000000E+00  0.00000000E+00  0.00000000E+00
  0.00000000E+00  0.00000000E+00  0.00000000E+00
  0.00000000E+00  0.00000000E+00  0.00000000E+00
  0.00000000E+00  0.00000000E+00  0.00000000E+00
  0.00000000E+00  0.00000000E+00  0.00000000E+00
  0.00000000E+00  0.00000000E+00  0.00000000E+00
  0.00000000E+00  0.00000000E+00  0.00000000E+00
  0.00000000E+00  0.00000000E+00  0.00000000E+00
  0.00000000E+00  0.00000000E+00  0.00000000E+00
  0.00000000E+00  0.00000000E+00  0.00000000E+00
  0.00000000E+00  0.00000000E+00  0.00000000E+00
  0.00000000E+00  0.00000000E+00  0.00000000E+00
  0.00000000E+00  0.00000000E+00  0.00000000E+00
  0.00000000E+00  0.00000000E+00  0.00000000E+00
  0.00000000E+00  0.00000000E+00  0.00000000E+00
  0.00000000E+00  0.00000000E+00  0.00000000E+00
  0.00000000E+00  0.00000000E+00  0.00000000E+00
  0.00000000E+00  0.00000000E+00  0.00000000E+00
  0.00000000E+00  0.00000000E+00  0.00000000E+00
  0.00000000E+00  0.00000000E+00  0.00000000E+00
  0.00000000E+00  0.00000000E+00  0.00000000E+00
  0.00000000E+00  0.00000000E+00  0.00000000E+00
  0.00000000E+00  0.00000000E+00  0.00000000E+00
  0.00000000E+00  0.00000000E+00  0.00000000E+00
  0.00000000E+00  0.00000000E+00  0.00000000E+00
  0.00000000E+00  0.00000000E+00  0.00000000E+00
  0.00000000E+00  0.00000000E+00  0.00000000E+00
  0.00000000E+00  0.00000000E+00  0.00000000E+00
  0.00000000E+00  0.00000000E+00  0.00000000E+00
  0.00000000E+00  0.00000000E+00  0.00000000E+00
  0.00000000E+00  0.00000000E+00  0.00000000E+00
  0.00000000E+00  0.00000000E+00  0.00000000E+00
  0.00000000E+00  0.00000000E+00  0.00000000E+00
  0.00000000E+00  0.00000000E+00  0.00000000E+00
  0.00000000E+00  0.00000000E+00  0.00000000E+00
  0.00000000E+00  0.00000000E+00  0.00000000E+00
  0.00000000E+00  0.00000000E+00  0.00000000E+00
  0.00000000E+00  0.00000000E+00  0.00000000E+00
  0.00000000E+00  0.00000000E+00  0.00000000E+00
  0.00000000E+00  0.00000000E+00  0.00000000E+00
  0.00000000E+00  0.00000000E+00  0.00000000E+00
  0.00000000E+00  0.00000000E+00  0.00000000E+00
  0.00000000E+00  0.00000000E+00  0.00000000E+00
  0.00000000E+00  0.00000000E+00  0.00000000E+00
  0.00000000E+00  0.00000000E+00  0.00000000E+00
  0.00000000E+00  0.00000000E+00  0.00000000E+00
  0.00000000E+00  0.00000000E+00  0.00000000E+00
  0.00000000E+00  0.00000000E+00  0.00000000E+00
  0.00000000E+00  0.00000000E+00  0.00000000E+00
  0.00000000E+00  0.00000000E+00  0.00000000E+00
  0.00000000E+00  0.00000000E+00  0.00000000E+00
  0.00000000E+00  0.00000000E+00  0.00000000E+00
  0.00000000E+00  0.00000000E+00  0.00000000E+00
  0.00000000E+00  0.00000000E+00  0.00000000E+00
  0.00000000E+00  0.00000000E+00  0.00000000E+00
  0.00000000E+00  0.00000000E+00  0.00000000E+00
  0.00000000E+00  0.00000000E+00  0.00000000E+00
  0.00000000E+00  0.00000000E+00  0.00000000E+00
