In30 Ga24 Cu54 Se108                    
   1.0000000000000000     
    15.8562979348561761    0.0039781992999202   -7.0877646448414540
    -3.1748511420877610   15.5327791528388133   -7.0854413341907092
     0.0100300106748418    0.0084078643246021   21.3000927309081760
   In   Ga   Cu   Se
    30    24    54   108
Direct
  0.4991309136536444  0.5016337925748928  0.9985543513925705
  0.5016865282142930  0.8310558714594123  0.0021960642157381
  0.8353642045470124  0.8315475390462694  0.0002348290168115
  0.1671133536554947  0.1667490168736663  0.0017866970175504
  0.4997114500766102  0.4980352632302569  0.3327493589355157
  0.1640152689539818  0.8320948713482608  0.3296011433330790
  0.4978489841883089  0.8303673003924317  0.3293830933451716
  0.8344977505754869  0.8311452366906380  0.3317367910927729
  0.4982449301645531  0.4974944281294498  0.6665830762776750
  0.5008918656255190  0.8333587298839049  0.6693368685967513
  0.8360332962753461  0.8311754620035998  0.6671937760244262
  0.1665223572421013  0.1718309592731870  0.6691202257836153
  0.5010479238204653  0.1705782387415837  0.6706458914270641
  0.8354033958060612  0.1701839312804694  0.6686625434974545
  0.2478053929874235  0.4196186449147774  0.1658362813241681
  0.5847756879095058  0.4150545798954326  0.1660621092060595
  0.9178091881639148  0.4174343670513068  0.1661407845866876
  0.5844557982272889  0.0841972960898332  0.1674695364060312
  0.9174510746444611  0.0849494290529336  0.1681068931005640
  0.5854510656695098  0.4145166899359296  0.4997680132797413
  0.9167478744102411  0.4161124109655105  0.4998070152043184
  0.2483121776964055  0.7485028643962863  0.5000232148199686
  0.5826036777565022  0.7483589577219476  0.5003168394634869
  0.2483689727623926  0.0842237440230633  0.4985087260317016
  0.5825136777463342  0.0844028030587154  0.4976582463525219
  0.9165962113247517  0.0860395011345574  0.4981539019109036
  0.2482940575066408  0.7488044838945029  0.8325963242623260
  0.5830313876534490  0.7476125960055384  0.8339271663484027
  0.2497557360800045  0.0820075163208855  0.8333146055835954
  0.9161766363331267  0.0856177257776807  0.8352575158412705
  0.1644539382155585  0.5005325837499441  0.9980035272932355
  0.8324694993993305  0.5018740251803777  0.9984008013708561
  0.1647643164574148  0.8336579981641066  0.0015823800945824
  0.4999494585627957  0.1670728301052549  0.9982446119371389
  0.8336064170866564  0.1655576603291848  0.9992823007630705
  0.1676432067275897  0.4981039382515888  0.3341174991021134
  0.8343115337390827  0.5012209833251617  0.3339886098069371
  0.1661968064535628  0.1699358237619251  0.3330241330198405
  0.4955942031349778  0.1653397751368360  0.3300216033362773
  0.8336027969562991  0.1666299230038817  0.3322417383010219
  0.1683366959026600  0.4981528910102142  0.6666028269407249
  0.8365661468658487  0.5022433148669023  0.6699388255514549
  0.1633691793952465  0.8309758089187369  0.6650151005934930
  0.2464873462077080  0.7477205002212770  0.1626304946729178
  0.5829778248197712  0.7498925488167956  0.1670558976060974
  0.9163089194350178  0.7473416951690410  0.1643776331796474
  0.2490266156361756  0.0821650168207242  0.1679567758586771
  0.2462481474867104  0.4166787852380196  0.4983935127014405
  0.9188378271440101  0.7463361737711480  0.4995505911205811
  0.2487167357792259  0.4208846944160882  0.8344579342244529
  0.5873128744033522  0.4187187707651745  0.8359023074709100
  0.9188378494937126  0.4206268576083829  0.8357653711836903
  0.9184037833148864  0.7470388549740647  0.8341316130756624
  0.5856441532218071  0.0853618132241181  0.8373404137368823
  0.9950754565723727  0.3357986543684603  0.9983586219283467
  0.3311110848100185  0.3336701375295448  0.9970049550297944
  0.6689078651505866  0.3306295766482705  0.9972688158724452
  0.0028492537527924  0.6654949425950321  0.0008926426504274
  0.3296974930874086  0.6682053155623180  0.0026033477671064
  0.6703820931251983  0.6638836533351480  0.0023238480038543
  0.0039950158106166  0.9979134731182526  0.0000538532579171
  0.3333008311605212  0.0002921600743733  0.0039155272837590
  0.6647807653110007  0.0058787991053890  0.9991435270029498
  0.0011351509309705  0.3367764871849488  0.3352673712506657
  0.3290216808187836  0.3280558016851032  0.3312370176418682
  0.6698757990825186  0.3307911689020671  0.3323000659281092
  0.0002775720379731  0.6619964178112170  0.3327945772344520
  0.3280916179120581  0.6654093880722414  0.3303063327402569
  0.6718617053989320  0.6653170172090270  0.3322337629293060
  0.9987147720917875  0.9996835315943216  0.3298655521771892
  0.3295005526405248  0.0004659161723026  0.3278523266709712
  0.6632208485657785  0.0016034761033623  0.3301414072443407
  0.0007723835386173  0.3414584796722053  0.6707786879937672
  0.3306377898937995  0.3378377609117891  0.6691682105502892
  0.6718337239712540  0.3379078849193107  0.6715328342959168
  0.0009644860262910  0.6641229870309857  0.6665438532237786
  0.3277608440349979  0.6622037422855769  0.6646852623224859
  0.6735024947495916  0.6657484990071936  0.6690577176508654
  0.0012821797490048  0.9960331028976199  0.6648434044200755
  0.3357899828951858  0.0002665197795935  0.6696255808763780
  0.6652415610002436  0.0024842575520765  0.6706944422108307
  0.0801046920068487  0.5828708007482746  0.1627466703241964
  0.4149556259593155  0.5864339235036269  0.1635141320757612
  0.7530370967603659  0.5831481822648499  0.1647376166996679
  0.0876098110525945  0.9163818165304676  0.1675783630349770
  0.4103819756636895  0.9155939846947234  0.1645388225266800
  0.7499816650392503  0.9138093336946369  0.1675689055284337
  0.0821828861530420  0.2492995443407366  0.1664248515039759
  0.4150141703721459  0.2450935601957980  0.1655600085326938
  0.7514067498689130  0.2526616308293512  0.1661581194956341
  0.0818357391158031  0.5820161751078246  0.4994375917183547
  0.4130958617306391  0.5810458026371066  0.4992440501471194
  0.7535546964123014  0.5818637338290813  0.5001851707164562
  0.0839233719342261  0.9164045374010357  0.5034408336548992
  0.4161967327103042  0.9176388119925747  0.4987341400823126
  0.7514077399859573  0.9141380100417891  0.5008068326890935
  0.0853665556860932  0.2518257074467627  0.4979434228986719
  0.4123512611923914  0.2490597681385509  0.4963488729250756
  0.7487948067174699  0.2515459205202788  0.4971124320040019
  0.0824957761512763  0.5839796248688955  0.8334799688293870
  0.4141979491243077  0.5790011427498882  0.8332494731355098
  0.7534176024450545  0.5800928975052670  0.8344022330448695
  0.0825308998984866  0.9120022019309175  0.8347166150070677
  0.4152813660829295  0.9184847400651535  0.8337915289211040
  0.7533809881010782  0.9185782881649871  0.8366277157865269
  0.0859652597561649  0.2573265942032350  0.8363109765433450
  0.4199292221868873  0.2529951479284094  0.8359176445276688
  0.7518365507172931  0.2564593206826160  0.8390677122145220
  0.1137409585427704  0.4602793547085327  0.0762304266298699
  0.4479655425790767  0.4587442402782074  0.0828880771370279
  0.7837321393487500  0.4591340505040407  0.0766122446725035
  0.1214551578241299  0.7912909446493614  0.0832681412405307
  0.4526030916286174  0.7892459965467609  0.0891365301101672
  0.7880893815139629  0.7884771057757760  0.0875981185468859
  0.1215895104859683  0.1229434431099321  0.0891458337207993
  0.4508342431517818  0.1257934585687437  0.0776064095495386
  0.7849278995786193  0.1295504488245101  0.0800237989139845
  0.1217243268934283  0.4601814454448458  0.4171275221208717
  0.4460182095790302  0.4547837644675639  0.4159368277865099
  0.7836694024487443  0.4592442817771385  0.4113804121436360
  0.1129070989802372  0.7911775723227947  0.4155640642531466
  0.4457265972802347  0.7900414700627465  0.4152353523024672
  0.7911736809984831  0.7890005324127074  0.4219698345927654
  0.1151099950720820  0.1266648171077307  0.4095370158485352
  0.4468192995362017  0.1263718425266376  0.4097027510965958
  0.7814320137313118  0.1278147308529327  0.4102248882415083
  0.1238529943573852  0.4619784515218086  0.7509919242879235
  0.4563642613959402  0.4559004360813077  0.7568819757953094
  0.7931327152218941  0.4597509524182470  0.7516259783891428
  0.1151330704142524  0.7921483360977319  0.7451065151414937
  0.4443366800891653  0.7886267837037906  0.7502760724026203
  0.7908827292204634  0.7911169663817716  0.7573311792632040
  0.1128221306469399  0.1270843836184952  0.7513971334358871
  0.4556324716456430  0.1238788016237038  0.7572020938076136
  0.7801405171295173  0.1294854686702820  0.7521590698014222
  0.2905481808213466  0.6241719415675746  0.0822020754044530
  0.6338060845392306  0.6315422033738471  0.0890912141784952
  0.9592634390650474  0.6246866614151827  0.0813534368808817
  0.2905358467245094  0.9581229563331917  0.0834503038888244
  0.6376344487391989  0.9584232659516942  0.0829003849519978
  0.9707732573501318  0.9584938506718643  0.0846660424446952
  0.3029657147049960  0.2931849257322625  0.0839009602695739
  0.6299376586888101  0.2849012584925745  0.0769950601044584
  0.9624147788876272  0.2848473238631684  0.0778790939714185
  0.2949653716625633  0.6182297862539627  0.4115491769595465
  0.6372787826070905  0.6239774805686409  0.4162187856071640
  0.9616127375778518  0.6228616746135245  0.4162063151736675
  0.3011552428485587  0.9588733152643272  0.4137634537535817
  0.6363032323874620  0.9566303074179174  0.4152868612573855
  0.9712713638791044  0.9589499701607807  0.4166971084495614
  0.2916479331681785  0.2928699109758739  0.4172198304156254
  0.6265326909932725  0.2828563513321640  0.4081349167762909
  0.9622128297909498  0.2854533260152650  0.4116305728691003
  0.2962202983075244  0.6167733665520956  0.7469427047736872
  0.6371794742053467  0.6221032139833724  0.7503058492286314
  0.9625502602688343  0.6254492334939812  0.7502156128863433
  0.2927509955932877  0.9496895638960368  0.7440736178271621
  0.6345799234654166  0.9651560831664341  0.7578002894277702
  0.9706981160952068  0.9593033859974511  0.7524910291438118
  0.3013787126274750  0.3017288506510596  0.7581537975413468
  0.6361856748657075  0.3006957410018387  0.7566578716020373
  0.9683673032113802  0.3023438947241530  0.7566259024479010
  0.2050130925412503  0.3699112744053750  0.2522955553471959
  0.5419004933335927  0.3606571021473712  0.2489719222514495
  0.8743248282966292  0.3729231132206792  0.2546373386548737
  0.2068833325304240  0.6986883792734133  0.2418583533088139
  0.5461660526148933  0.6975501599384728  0.2455755071564312
  0.8800568190912799  0.6980328139538940  0.2450718943084951
  0.2062081871831154  0.0418921154042877  0.2505765158883406
  0.5340113565440632  0.0357441382663595  0.2508099156633250
  0.8707354451143559  0.0364681625156678  0.2529801048754763
  0.2081325819011397  0.3730085843664810  0.5824799187937657
  0.5421671136263839  0.3617419041537673  0.5832434866728562
  0.8719133615713446  0.3724836488347165  0.5878847368370401
  0.2036551300768892  0.7027715831144050  0.5870084298536185
  0.5428523178983298  0.6944728808568641  0.5854280418537314
  0.8793407174484074  0.6976307263238795  0.5789439860208674
  0.2094684066575923  0.0336667483753672  0.5859761235572947
  0.5412428387575332  0.0336026232917135  0.5837108173404530
  0.8764279645890127  0.0322529549749930  0.5832961036207891
  0.2095724198724795  0.3763816046448198  0.9173724091298894
  0.5469622435692401  0.3687183789597199  0.9139738654632339
  0.8746760088398062  0.3769246140483347  0.9169427774572725
  0.2048508071869790  0.7060666444455563  0.9221480574191290
  0.5420298452602808  0.6930775780339289  0.9176910581610258
  0.8792571984872311  0.6975750329388006  0.9132225793013262
  0.2074275363295683  0.0289908899411202  0.9173222521888178
  0.5390017719191320  0.0394401278286693  0.9155702471471088
  0.8769958685349195  0.0375331900824136  0.9236421136218027
  0.0509786932392799  0.5491315567445554  0.2537479124464141
  0.3762990008448739  0.5540632040778490  0.2492385373398278
  0.7172949767482919  0.5483999020652632  0.2514879940208914
  0.0332796165156282  0.8781726883933985  0.2423200001058419
  0.3648000758533314  0.8766190548233155  0.2434324637348482
  0.7011330231285484  0.8789759728916806  0.2465674571314906
  0.0470401144317236  0.2196604148274446  0.2550531797996882
  0.3718370139719056  0.2088370035464138  0.2477972114912106
  0.7168412475660446  0.2162300297170248  0.2522703738173036
  0.0493695680973119  0.5479360077356148  0.5881663386454008
  0.3664512028828284  0.5440261934647097  0.5788022983378198
  0.7177519420086327  0.5486688849697430  0.5873111083848670
  0.0408053440396685  0.8743894338122686  0.5823555938117977
  0.3755336351632792  0.8850060095018222  0.5828025432264994
  0.7081836892467379  0.8867048885273547  0.5865616714064004
  0.0415031662158043  0.2249832711637723  0.5839173999229317
  0.3738215377949601  0.2219399892190594  0.5850622705364898
  0.7089589972178274  0.2211868995381181  0.5830386710333855
  0.0425671898211277  0.5453109034040295  0.9166053554385130
  0.3661774711203378  0.5495222299055982  0.9148125926594872
  0.7097128870104115  0.5455618084396860  0.9170348299687916
  0.0410660726571521  0.8744077615499180  0.9166367441276009
  0.3757172457847489  0.8853555106051445  0.9189653821829822
  0.7078050852340851  0.8860506343636061  0.9185072402929961
  0.0426828516284630  0.2221351211511831  0.9182490681792075
  0.3805603578158312  0.2172311407658043  0.9200666315380559
  0.7108256093606826  0.2098097157858234  0.9170959217116703

  0.00000000E+00  0.00000000E+00  0.00000000E+00
  0.00000000E+00  0.00000000E+00  0.00000000E+00
  0.00000000E+00  0.00000000E+00  0.00000000E+00
  0.00000000E+00  0.00000000E+00  0.00000000E+00
  0.00000000E+00  0.00000000E+00  0.00000000E+00
  0.00000000E+00  0.00000000E+00  0.00000000E+00
  0.00000000E+00  0.00000000E+00  0.00000000E+00
  0.00000000E+00  0.00000000E+00  0.00000000E+00
  0.00000000E+00  0.00000000E+00  0.00000000E+00
  0.00000000E+00  0.00000000E+00  0.00000000E+00
  0.00000000E+00  0.00000000E+00  0.00000000E+00
  0.00000000E+00  0.00000000E+00  0.00000000E+00
  0.00000000E+00  0.00000000E+00  0.00000000E+00
  0.00000000E+00  0.00000000E+00  0.00000000E+00
  0.00000000E+00  0.00000000E+00  0.00000000E+00
  0.00000000E+00  0.00000000E+00  0.00000000E+00
  0.00000000E+00  0.00000000E+00  0.00000000E+00
  0.00000000E+00  0.00000000E+00  0.00000000E+00
  0.00000000E+00  0.00000000E+00  0.00000000E+00
  0.00000000E+00  0.00000000E+00  0.00000000E+00
  0.00000000E+00  0.00000000E+00  0.00000000E+00
  0.00000000E+00  0.00000000E+00  0.00000000E+00
  0.00000000E+00  0.00000000E+00  0.00000000E+00
  0.00000000E+00  0.00000000E+00  0.00000000E+00
  0.00000000E+00  0.00000000E+00  0.00000000E+00
  0.00000000E+00  0.00000000E+00  0.00000000E+00
  0.00000000E+00  0.00000000E+00  0.00000000E+00
  0.00000000E+00  0.00000000E+00  0.00000000E+00
  0.00000000E+00  0.00000000E+00  0.00000000E+00
  0.00000000E+00  0.00000000E+00  0.00000000E+00
  0.00000000E+00  0.00000000E+00  0.00000000E+00
  0.00000000E+00  0.00000000E+00  0.00000000E+00
  0.00000000E+00  0.00000000E+00  0.00000000E+00
  0.00000000E+00  0.00000000E+00  0.00000000E+00
  0.00000000E+00  0.00000000E+00  0.00000000E+00
  0.00000000E+00  0.00000000E+00  0.00000000E+00
  0.00000000E+00  0.00000000E+00  0.00000000E+00
  0.00000000E+00  0.00000000E+00  0.00000000E+00
  0.00000000E+00  0.00000000E+00  0.00000000E+00
  0.00000000E+00  0.00000000E+00  0.00000000E+00
  0.00000000E+00  0.00000000E+00  0.00000000E+00
  0.00000000E+00  0.00000000E+00  0.00000000E+00
  0.00000000E+00  0.00000000E+00  0.00000000E+00
  0.00000000E+00  0.00000000E+00  0.00000000E+00
  0.00000000E+00  0.00000000E+00  0.00000000E+00
  0.00000000E+00  0.00000000E+00  0.00000000E+00
  0.00000000E+00  0.00000000E+00  0.00000000E+00
  0.00000000E+00  0.00000000E+00  0.00000000E+00
  0.00000000E+00  0.00000000E+00  0.00000000E+00
  0.00000000E+00  0.00000000E+00  0.00000000E+00
  0.00000000E+00  0.00000000E+00  0.00000000E+00
  0.00000000E+00  0.00000000E+00  0.00000000E+00
  0.00000000E+00  0.00000000E+00  0.00000000E+00
  0.00000000E+00  0.00000000E+00  0.00000000E+00
  0.00000000E+00  0.00000000E+00  0.00000000E+00
  0.00000000E+00  0.00000000E+00  0.00000000E+00
  0.00000000E+00  0.00000000E+00  0.00000000E+00
  0.00000000E+00  0.00000000E+00  0.00000000E+00
  0.00000000E+00  0.00000000E+00  0.00000000E+00
  0.00000000E+00  0.00000000E+00  0.00000000E+00
  0.00000000E+00  0.00000000E+00  0.00000000E+00
  0.00000000E+00  0.00000000E+00  0.00000000E+00
  0.00000000E+00  0.00000000E+00  0.00000000E+00
  0.00000000E+00  0.00000000E+00  0.00000000E+00
  0.00000000E+00  0.00000000E+00  0.00000000E+00
  0.00000000E+00  0.00000000E+00  0.00000000E+00
  0.00000000E+00  0.00000000E+00  0.00000000E+00
  0.00000000E+00  0.00000000E+00  0.00000000E+00
  0.00000000E+00  0.00000000E+00  0.00000000E+00
  0.00000000E+00  0.00000000E+00  0.00000000E+00
  0.00000000E+00  0.00000000E+00  0.00000000E+00
  0.00000000E+00  0.00000000E+00  0.00000000E+00
  0.00000000E+00  0.00000000E+00  0.00000000E+00
  0.00000000E+00  0.00000000E+00  0.00000000E+00
  0.00000000E+00  0.00000000E+00  0.00000000E+00
  0.00000000E+00  0.00000000E+00  0.00000000E+00
  0.00000000E+00  0.00000000E+00  0.00000000E+00
  0.00000000E+00  0.00000000E+00  0.00000000E+00
  0.00000000E+00  0.00000000E+00  0.00000000E+00
  0.00000000E+00  0.00000000E+00  0.00000000E+00
  0.00000000E+00  0.00000000E+00  0.00000000E+00
  0.00000000E+00  0.00000000E+00  0.00000000E+00
  0.00000000E+00  0.00000000E+00  0.00000000E+00
  0.00000000E+00  0.00000000E+00  0.00000000E+00
  0.00000000E+00  0.00000000E+00  0.00000000E+00
  0.00000000E+00  0.00000000E+00  0.00000000E+00
  0.00000000E+00  0.00000000E+00  0.00000000E+00
  0.00000000E+00  0.00000000E+00  0.00000000E+00
  0.00000000E+00  0.00000000E+00  0.00000000E+00
  0.00000000E+00  0.00000000E+00  0.00000000E+00
  0.00000000E+00  0.00000000E+00  0.00000000E+00
  0.00000000E+00  0.00000000E+00  0.00000000E+00
  0.00000000E+00  0.00000000E+00  0.00000000E+00
  0.00000000E+00  0.00000000E+00  0.00000000E+00
  0.00000000E+00  0.00000000E+00  0.00000000E+00
  0.00000000E+00  0.00000000E+00  0.00000000E+00
  0.00000000E+00  0.00000000E+00  0.00000000E+00
  0.00000000E+00  0.00000000E+00  0.00000000E+00
  0.00000000E+00  0.00000000E+00  0.00000000E+00
  0.00000000E+00  0.00000000E+00  0.00000000E+00
  0.00000000E+00  0.00000000E+00  0.00000000E+00
  0.00000000E+00  0.00000000E+00  0.00000000E+00
  0.00000000E+00  0.00000000E+00  0.00000000E+00
  0.00000000E+00  0.00000000E+00  0.00000000E+00
  0.00000000E+00  0.00000000E+00  0.00000000E+00
  0.00000000E+00  0.00000000E+00  0.00000000E+00
  0.00000000E+00  0.00000000E+00  0.00000000E+00
  0.00000000E+00  0.00000000E+00  0.00000000E+00
  0.00000000E+00  0.00000000E+00  0.00000000E+00
  0.00000000E+00  0.00000000E+00  0.00000000E+00
  0.00000000E+00  0.00000000E+00  0.00000000E+00
  0.00000000E+00  0.00000000E+00  0.00000000E+00
  0.00000000E+00  0.00000000E+00  0.00000000E+00
  0.00000000E+00  0.00000000E+00  0.00000000E+00
  0.00000000E+00  0.00000000E+00  0.00000000E+00
  0.00000000E+00  0.00000000E+00  0.00000000E+00
  0.00000000E+00  0.00000000E+00  0.00000000E+00
  0.00000000E+00  0.00000000E+00  0.00000000E+00
  0.00000000E+00  0.00000000E+00  0.00000000E+00
  0.00000000E+00  0.00000000E+00  0.00000000E+00
  0.00000000E+00  0.00000000E+00  0.00000000E+00
  0.00000000E+00  0.00000000E+00  0.00000000E+00
  0.00000000E+00  0.00000000E+00  0.00000000E+00
  0.00000000E+00  0.00000000E+00  0.00000000E+00
  0.00000000E+00  0.00000000E+00  0.00000000E+00
  0.00000000E+00  0.00000000E+00  0.00000000E+00
  0.00000000E+00  0.00000000E+00  0.00000000E+00
  0.00000000E+00  0.00000000E+00  0.00000000E+00
  0.00000000E+00  0.00000000E+00  0.00000000E+00
  0.00000000E+00  0.00000000E+00  0.00000000E+00
  0.00000000E+00  0.00000000E+00  0.00000000E+00
  0.00000000E+00  0.00000000E+00  0.00000000E+00
  0.00000000E+00  0.00000000E+00  0.00000000E+00
  0.00000000E+00  0.00000000E+00  0.00000000E+00
  0.00000000E+00  0.00000000E+00  0.00000000E+00
  0.00000000E+00  0.00000000E+00  0.00000000E+00
  0.00000000E+00  0.00000000E+00  0.00000000E+00
  0.00000000E+00  0.00000000E+00  0.00000000E+00
  0.00000000E+00  0.00000000E+00  0.00000000E+00
  0.00000000E+00  0.00000000E+00  0.00000000E+00
  0.00000000E+00  0.00000000E+00  0.00000000E+00
  0.00000000E+00  0.00000000E+00  0.00000000E+00
  0.00000000E+00  0.00000000E+00  0.00000000E+00
  0.00000000E+00  0.00000000E+00  0.00000000E+00
  0.00000000E+00  0.00000000E+00  0.00000000E+00
  0.00000000E+00  0.00000000E+00  0.00000000E+00
  0.00000000E+00  0.00000000E+00  0.00000000E+00
  0.00000000E+00  0.00000000E+00  0.00000000E+00
  0.00000000E+00  0.00000000E+00  0.00000000E+00
  0.00000000E+00  0.00000000E+00  0.00000000E+00
  0.00000000E+00  0.00000000E+00  0.00000000E+00
  0.00000000E+00  0.00000000E+00  0.00000000E+00
  0.00000000E+00  0.00000000E+00  0.00000000E+00
  0.00000000E+00  0.00000000E+00  0.00000000E+00
  0.00000000E+00  0.00000000E+00  0.00000000E+00
  0.00000000E+00  0.00000000E+00  0.00000000E+00
  0.00000000E+00  0.00000000E+00  0.00000000E+00
  0.00000000E+00  0.00000000E+00  0.00000000E+00
  0.00000000E+00  0.00000000E+00  0.00000000E+00
  0.00000000E+00  0.00000000E+00  0.00000000E+00
  0.00000000E+00  0.00000000E+00  0.00000000E+00
  0.00000000E+00  0.00000000E+00  0.00000000E+00
  0.00000000E+00  0.00000000E+00  0.00000000E+00
  0.00000000E+00  0.00000000E+00  0.00000000E+00
  0.00000000E+00  0.00000000E+00  0.00000000E+00
  0.00000000E+00  0.00000000E+00  0.00000000E+00
  0.00000000E+00  0.00000000E+00  0.00000000E+00
  0.00000000E+00  0.00000000E+00  0.00000000E+00
  0.00000000E+00  0.00000000E+00  0.00000000E+00
  0.00000000E+00  0.00000000E+00  0.00000000E+00
  0.00000000E+00  0.00000000E+00  0.00000000E+00
  0.00000000E+00  0.00000000E+00  0.00000000E+00
  0.00000000E+00  0.00000000E+00  0.00000000E+00
  0.00000000E+00  0.00000000E+00  0.00000000E+00
  0.00000000E+00  0.00000000E+00  0.00000000E+00
  0.00000000E+00  0.00000000E+00  0.00000000E+00
  0.00000000E+00  0.00000000E+00  0.00000000E+00
  0.00000000E+00  0.00000000E+00  0.00000000E+00
  0.00000000E+00  0.00000000E+00  0.00000000E+00
  0.00000000E+00  0.00000000E+00  0.00000000E+00
  0.00000000E+00  0.00000000E+00  0.00000000E+00
  0.00000000E+00  0.00000000E+00  0.00000000E+00
  0.00000000E+00  0.00000000E+00  0.00000000E+00
  0.00000000E+00  0.00000000E+00  0.00000000E+00
  0.00000000E+00  0.00000000E+00  0.00000000E+00
  0.00000000E+00  0.00000000E+00  0.00000000E+00
  0.00000000E+00  0.00000000E+00  0.00000000E+00
  0.00000000E+00  0.00000000E+00  0.00000000E+00
  0.00000000E+00  0.00000000E+00  0.00000000E+00
  0.00000000E+00  0.00000000E+00  0.00000000E+00
  0.00000000E+00  0.00000000E+00  0.00000000E+00
  0.00000000E+00  0.00000000E+00  0.00000000E+00
  0.00000000E+00  0.00000000E+00  0.00000000E+00
  0.00000000E+00  0.00000000E+00  0.00000000E+00
  0.00000000E+00  0.00000000E+00  0.00000000E+00
  0.00000000E+00  0.00000000E+00  0.00000000E+00
  0.00000000E+00  0.00000000E+00  0.00000000E+00
  0.00000000E+00  0.00000000E+00  0.00000000E+00
  0.00000000E+00  0.00000000E+00  0.00000000E+00
  0.00000000E+00  0.00000000E+00  0.00000000E+00
  0.00000000E+00  0.00000000E+00  0.00000000E+00
  0.00000000E+00  0.00000000E+00  0.00000000E+00
  0.00000000E+00  0.00000000E+00  0.00000000E+00
  0.00000000E+00  0.00000000E+00  0.00000000E+00
  0.00000000E+00  0.00000000E+00  0.00000000E+00
  0.00000000E+00  0.00000000E+00  0.00000000E+00
  0.00000000E+00  0.00000000E+00  0.00000000E+00
  0.00000000E+00  0.00000000E+00  0.00000000E+00
  0.00000000E+00  0.00000000E+00  0.00000000E+00
  0.00000000E+00  0.00000000E+00  0.00000000E+00
  0.00000000E+00  0.00000000E+00  0.00000000E+00
  0.00000000E+00  0.00000000E+00  0.00000000E+00
  0.00000000E+00  0.00000000E+00  0.00000000E+00
  0.00000000E+00  0.00000000E+00  0.00000000E+00
  0.00000000E+00  0.00000000E+00  0.00000000E+00
  0.00000000E+00  0.00000000E+00  0.00000000E+00
