In48 Ga6 Cu48 Ag6 Se108                 
   1.0000000000000000     
    16.1139163111259087   -0.0156437149025999   -7.2115783108235121
    -3.2200440731555950   15.7949916674346831   -7.2175477220917763
     0.0374678037916120    0.0518332978382064   21.6929511077747996
   In   Ga   Cu   Ag   Se
    48     6    48     6   108
Direct
  0.1690203252221849  0.4973605601152684  0.0009431086674283
  0.5022384634062789  0.5002838783263215  0.9996623201263759
  0.1697415518503576  0.8367413702861981  0.0024861735858863
  0.1663208637427402  0.1680785425657163  0.0014044616595541
  0.5025224829678763  0.1670155893167689  0.0009556675028151
  0.8322760921451149  0.1656339404876022  0.0014300248502082
  0.1645286241042214  0.5017514041078925  0.3348101577668885
  0.8340478285730271  0.5009576173054242  0.3338443324145004
  0.1677818853866100  0.8307125385455407  0.3339145388680720
  0.5012469238251214  0.8347544364154302  0.3334381508743860
  0.8332937496387274  0.8326546976943874  0.3336390311483299
  0.1652085869903388  0.1665984040056614  0.3327677975532950
  0.5003466225260382  0.1663159449809299  0.3334708294167612
  0.8338582012741469  0.1669386334458878  0.3327422582448065
  0.1698695270040531  0.5001944434142516  0.6651715469753086
  0.4976767187933575  0.5002536107510878  0.6668110437026797
  0.8319937687671199  0.5028261152802074  0.6664846172474199
  0.1694625093148190  0.8324874633347434  0.6637438625399597
  0.8298994690620844  0.8335828507323910  0.6643761390370102
  0.1680497474415645  0.1654010946302549  0.6664785191740776
  0.4979979373541781  0.1647012899206501  0.6664375040159882
  0.8322924472247237  0.1624470918431271  0.6657591725966938
  0.2519922046354637  0.4162896014335971  0.1703314872553605
  0.5851796458539198  0.4169038635029594  0.1675686605339664
  0.9145926859523215  0.4170384388725594  0.1647623168131318
  0.2507356457298613  0.7511157741612280  0.1667274072326137
  0.5865833920305406  0.7531448753155416  0.1656811649681700
  0.9132425335207586  0.7483860167117626  0.1641269595045927
  0.2492692587677610  0.0831335896670637  0.1665730544252426
  0.5844865949839786  0.0818438665862047  0.1666561647535687
  0.9146079945665093  0.0813674118805849  0.1664260545413967
  0.2487288234486229  0.4143584619379226  0.4989092222836788
  0.5829190132750668  0.4171256337329865  0.4969442284342378
  0.9172937133488688  0.4170985750747036  0.5000024218074444
  0.5806457545998711  0.7496869309656873  0.4988577948181856
  0.9173247270647593  0.7511780326342432  0.5002327505530815
  0.2498405886200601  0.0821221561207537  0.4994015847753559
  0.5816557835673635  0.0811089330063197  0.4991019345665109
  0.9170971281885585  0.0809013033644632  0.4982739255346544
  0.2526904671162526  0.4149884149115550  0.8334112898884527
  0.5850854359888942  0.4167931196818273  0.8357850076321753
  0.9143343079808659  0.4138517849303085  0.8348391995654012
  0.2567744360244859  0.7527835383697123  0.8345292045738972
  0.5842089050320709  0.7529450759356067  0.8348934827244250
  0.9126309182547416  0.7542037223353617  0.8349901401367674
  0.2519236563676515  0.0830049588666952  0.8332531588221599
  0.5818407974099671  0.0810753223821976  0.8324059791978939
  0.9138311864154716  0.0847418965428233  0.8338684792769513
  0.8299805713076793  0.4980412060517381  0.0004691746499716
  0.5021299492376698  0.8338354103050492  0.0001317960347151
  0.8307142508328766  0.8369164907653683  0.0004813700044011
  0.5011433790198652  0.4990799626288833  0.3329000266514299
  0.4982840818092100  0.8342932829486642  0.6662109657723860
  0.2506062195108711  0.7512390524252837  0.5008638239011418
  0.9981271860750809  0.3349738599063414  0.0006030218670290
  0.3320351241240118  0.3279802135111041  0.9976746674884538
  0.6666956071804222  0.3335327561109693  0.0001582792916750
  0.3409362345488560  0.6710528023974405  0.0003747904993645
  0.6672685745866715  0.6692420287339829  0.9993939302919230
  0.9951023052534680  0.0015775229677288  0.0032098029418890
  0.3435068067760483  0.0007408752119957  0.0035363605812648
  0.6667838381508062  0.9977167968673299  0.0012367638902262
  0.9985740289616629  0.3325466982229699  0.3323382746802821
  0.3322496308549390  0.3322097575029943  0.3304774680658156
  0.6648315423328057  0.3349121257110070  0.3329047992760366
  0.0032398361384907  0.6697641373503913  0.3360578324416394
  0.3312332981650599  0.6700393855281419  0.3340838510842730
  0.6685391484324370  0.6640538495400747  0.3352692850400487
  0.9991370804719466  0.9976004708937154  0.3322440501965715
  0.3322473317524697  0.9979716606192426  0.3319506399919518
  0.6681781201794834  0.9994498281451385  0.3326927121898464
  0.9967102048332279  0.3281450142774673  0.6644833397400305
  0.3353171681183795  0.3344192597284845  0.6677499211369238
  0.9972862991398515  0.6657937969513625  0.6604957293307692
  0.3337609463270752  0.6733875915762226  0.6673799438774211
  0.6671124011522593  0.6687731290438563  0.6702139674196061
  0.0011570229215252  0.0017029814074903  0.6650151500045709
  0.3340895212692701  0.9930107694719155  0.6641844440123208
  0.6641345504454250  0.9976052804640361  0.6671777129921495
  0.0819905709044662  0.5790390812374966  0.1663773741563901
  0.7522174946442490  0.5830078932661706  0.1653257648538187
  0.0795177950265327  0.9196607408646145  0.1683294450280570
  0.4186034610955289  0.9163065234460817  0.1650380595003398
  0.7489593203698632  0.9149593342895983  0.1623161605854264
  0.0818097795003965  0.2497256209011383  0.1667227322332607
  0.4188429371863549  0.2541590149303374  0.1696598977873975
  0.7507517783364861  0.2502062827428304  0.1680910089014276
  0.0857476446928729  0.5852434896295762  0.4998308827848206
  0.7454637242075677  0.5824221000722005  0.4974669585266938
  0.0858453610208656  0.9148998035580220  0.5002548657605885
  0.4146562382287016  0.9144519252481089  0.5019020079329266
  0.7491712145537264  0.9161498779694028  0.4989331750780082
  0.0832011992793511  0.2483705196584793  0.4996013215951365
  0.4114261615952657  0.2464114458020177  0.4962326075782002
  0.7528706156477227  0.2498412626294026  0.4979917560769138
  0.4196605711625168  0.5869301514204182  0.8353296498410714
  0.7465842450616620  0.5876394300008059  0.8390911471785287
  0.4204977942703749  0.9151045611064319  0.8337297969289850
  0.7448919452172831  0.9166196594244553  0.8330442877753441
  0.0822249071023933  0.2492386771045147  0.8331760781205091
  0.4177748961042624  0.2475688153758142  0.8320449986907619
  0.7519329437318873  0.2505896490705055  0.8381847069335038
  0.9948601857984229  0.6685472669905153  0.0024274662963819
  0.6668276514536089  0.3361297887284636  0.6662877814050319
  0.4162068683437212  0.5825647334997299  0.1695536004891949
  0.4177482424537686  0.5849819610234306  0.4984286950124570
  0.0842367243139392  0.5836833753419839  0.8291925220379355
  0.0849103139562075  0.9167858648246678  0.8330500683579487
  0.1168391438568790  0.4570229886977657  0.0849498436840435
  0.4495086571905489  0.4495891254446036  0.0774775994746832
  0.7807013845159503  0.4587513887916117  0.0782524448475286
  0.1203265060084320  0.8009526217576308  0.0892082298780323
  0.4538595864865513  0.7961751883926453  0.0797272803505678
  0.7829198945746185  0.7942159430389140  0.0777510894955924
  0.1122860674441455  0.1245421386383114  0.0835278627580536
  0.4520166980199392  0.1296188716116546  0.0871715320747484
  0.7794451319079627  0.1240107150686640  0.0845335034864476
  0.1131545436427999  0.4572481770051056  0.4167927586272953
  0.4511615743918540  0.4534489522031322  0.4058284594690065
  0.7808620145638230  0.4587029353461318  0.4166725452303268
  0.1230357121345449  0.7906290422662252  0.4226156029466281
  0.4465381008693186  0.7926210324157452  0.4155425302374027
  0.7807806694120174  0.7909922529118134  0.4169883252810180
  0.1134100746971285  0.1232276397828187  0.4157913001749449
  0.4463907946023511  0.1234657590149979  0.4155756997499864
  0.7824921001342133  0.1241213701704211  0.4155033101564740
  0.1172901812750098  0.4474390498462384  0.7420930801868906
  0.4500018943447657  0.4596794761134149  0.7529813989045664
  0.7888755053549872  0.4712433812302521  0.7587397718569520
  0.1191373701852498  0.7830959059357170  0.7432697567509976
  0.4520073357764716  0.7949219359268085  0.7460383541021187
  0.7792214442341105  0.7949887753642955  0.7499775870911733
  0.1155720260143340  0.1251038748974764  0.7506637979850197
  0.4455590310200392  0.1207917929828923  0.7483150169616763
  0.7774214630122529  0.1250779870148975  0.7502662901936148
  0.2973649902865603  0.6285406015745636  0.0772605063933725
  0.6377356725622008  0.6261939690970237  0.0830005930657194
  0.9575487760943417  0.6126080577392088  0.0843679518459766
  0.3051148532399353  0.9610624282717879  0.0843896018588595
  0.6290587625213533  0.9516325423687135  0.0791062449185560
  0.9600552235398041  0.9521205172437419  0.0804140426881403
  0.3028741882893655  0.2926007811196811  0.0847573555052890
  0.6380228485646597  0.2923172870954645  0.0846539805735915
  0.9677874799267627  0.2911082451367690  0.0832743873905031
  0.2913429321270868  0.6353941253420174  0.4162538671050129
  0.6268425686656656  0.6186856859058736  0.4120660554811337
  0.9697950987698363  0.6261633478465569  0.4171990909256067
  0.3028284309010232  0.9567329245789793  0.4165792700961930
  0.6363883731487405  0.9590184007710363  0.4162188571101311
  0.9707330044794915  0.9557085697303478  0.4165869105662878
  0.3007577759571021  0.2913011139848152  0.4140207552044757
  0.6366940161927914  0.2910637036616919  0.4163783411257569
  0.9696374595693484  0.2915386062364007  0.4168645254155336
  0.3055988203186573  0.6265215827130604  0.7495542093746650
  0.6336729631853970  0.6247541913457155  0.7512435190035873
  0.9607841898388472  0.6327812222039171  0.7450821550749183
  0.3047336431189649  0.9568321267750264  0.7513175163543409
  0.6263775736413635  0.9514084179621847  0.7455402927322936
  0.9608180498006149  0.9620896682460796  0.7444001180054940
  0.3043513656165970  0.2899292099377888  0.7496155890103822
  0.6338305135363242  0.2879738041745270  0.7549458363751143
  0.9663425209090377  0.2896387058221706  0.7497771988699782
  0.2058665631163308  0.3648532067350203  0.2515363851083876
  0.5405151761665721  0.3726195643037400  0.2542171110326876
  0.8746564435769031  0.3650709490499509  0.2494887915469164
  0.2061014477029843  0.6950065186807848  0.2464251813991538
  0.5514986155342427  0.7057255467263488  0.2541634847283447
  0.8765254694716376  0.6983114667690700  0.2511681425663497
  0.2068492084856999  0.0310001215379074  0.2499634940798217
  0.5429580238767997  0.0308888345900726  0.2506129267345187
  0.8737464324758548  0.0295434971944388  0.2497143615711437
  0.2090176451070960  0.3618429208338085  0.5824774972616993
  0.5308512132898073  0.3662436427617948  0.5751104296197695
  0.8750447570756776  0.3662734286635754  0.5843775366049044
  0.2114251783608978  0.6999473890237553  0.5773773578866468
  0.5473406684547655  0.7131058026471280  0.5940603123546566
  0.8711357720165225  0.6975927234984098  0.5803727993439267
  0.2104011761586406  0.0292471310709175  0.5836651917025648
  0.5398311759689705  0.0292823122226835  0.5830076019006469
  0.8749319495934955  0.0290116037417789  0.5813335798604058
  0.2090653491439696  0.3619639767155221  0.9158412732215311
  0.5413875316475298  0.3629245351559973  0.9165498556201186
  0.8711523806559924  0.3707835250732927  0.9227880717094550
  0.2178078849134479  0.7069460220916142  0.9214009136627652
  0.5408181203520854  0.7059085060840502  0.9211333245184932
  0.8626511033264066  0.7100345267226018  0.9180409109396379
  0.2203371419509139  0.0388448387959528  0.9246562235158891
  0.5436448084851691  0.0306461998250569  0.9180797582543789
  0.8716064897756155  0.0300900886306081  0.9158421488327235
  0.0398117255387689  0.5522351525009697  0.2505955068970209
  0.3790502632719921  0.5492345777942305  0.2627413716813081
  0.7096719276424963  0.5527472854958475  0.2491632480876476
  0.0410923347965237  0.8822936800332855  0.2499513135835087
  0.3765842488063953  0.8857293224530522  0.2488000578019580
  0.7119692253707157  0.8874232056061615  0.2496678917119581
  0.0392475592206480  0.2173395865659273  0.2488480526375625
  0.3749993192845977  0.2179375448106597  0.2493078472060972
  0.7077746446286923  0.2194816215515516  0.2504757520815346
  0.0432292997117258  0.5521867572605146  0.5820277764373216
  0.3703040863580256  0.5511398789249995  0.5870598971195733
  0.7052831029712507  0.5545149012364305  0.5833044153548101
  0.0429861036515646  0.8861407571040658  0.5837760972885491
  0.3746951873123692  0.8747644048760534  0.5827241767756064
  0.7052967317277918  0.8855979413824642  0.5809115539460024
  0.0414964697919018  0.2163255021713795  0.5824424302576290
  0.3746393282426794  0.2185987814775032  0.5829842091792514
  0.7109088144641404  0.2111467459457614  0.5772522611488000
  0.0418368505746614  0.5431473188569953  0.9168533730133035
  0.3765516446141319  0.5523577292929716  0.9163464775068064
  0.7139080313494333  0.5500396914695926  0.9231074101432242
  0.0391980488312242  0.8863044452379327  0.9236770119827895
  0.3865271828125714  0.8850131113863000  0.9218630571880553
  0.7136609423811819  0.8855437319947015  0.9218033382622366
  0.0402349367926931  0.2199213884007492  0.9172087634686719
  0.3771970435066194  0.2173537084321708  0.9159074244412722
  0.7070414486597230  0.2166465259825614  0.9177638298123725

  0.00000000E+00  0.00000000E+00  0.00000000E+00
  0.00000000E+00  0.00000000E+00  0.00000000E+00
  0.00000000E+00  0.00000000E+00  0.00000000E+00
  0.00000000E+00  0.00000000E+00  0.00000000E+00
  0.00000000E+00  0.00000000E+00  0.00000000E+00
  0.00000000E+00  0.00000000E+00  0.00000000E+00
  0.00000000E+00  0.00000000E+00  0.00000000E+00
  0.00000000E+00  0.00000000E+00  0.00000000E+00
  0.00000000E+00  0.00000000E+00  0.00000000E+00
  0.00000000E+00  0.00000000E+00  0.00000000E+00
  0.00000000E+00  0.00000000E+00  0.00000000E+00
  0.00000000E+00  0.00000000E+00  0.00000000E+00
  0.00000000E+00  0.00000000E+00  0.00000000E+00
  0.00000000E+00  0.00000000E+00  0.00000000E+00
  0.00000000E+00  0.00000000E+00  0.00000000E+00
  0.00000000E+00  0.00000000E+00  0.00000000E+00
  0.00000000E+00  0.00000000E+00  0.00000000E+00
  0.00000000E+00  0.00000000E+00  0.00000000E+00
  0.00000000E+00  0.00000000E+00  0.00000000E+00
  0.00000000E+00  0.00000000E+00  0.00000000E+00
  0.00000000E+00  0.00000000E+00  0.00000000E+00
  0.00000000E+00  0.00000000E+00  0.00000000E+00
  0.00000000E+00  0.00000000E+00  0.00000000E+00
  0.00000000E+00  0.00000000E+00  0.00000000E+00
  0.00000000E+00  0.00000000E+00  0.00000000E+00
  0.00000000E+00  0.00000000E+00  0.00000000E+00
  0.00000000E+00  0.00000000E+00  0.00000000E+00
  0.00000000E+00  0.00000000E+00  0.00000000E+00
  0.00000000E+00  0.00000000E+00  0.00000000E+00
  0.00000000E+00  0.00000000E+00  0.00000000E+00
  0.00000000E+00  0.00000000E+00  0.00000000E+00
  0.00000000E+00  0.00000000E+00  0.00000000E+00
  0.00000000E+00  0.00000000E+00  0.00000000E+00
  0.00000000E+00  0.00000000E+00  0.00000000E+00
  0.00000000E+00  0.00000000E+00  0.00000000E+00
  0.00000000E+00  0.00000000E+00  0.00000000E+00
  0.00000000E+00  0.00000000E+00  0.00000000E+00
  0.00000000E+00  0.00000000E+00  0.00000000E+00
  0.00000000E+00  0.00000000E+00  0.00000000E+00
  0.00000000E+00  0.00000000E+00  0.00000000E+00
  0.00000000E+00  0.00000000E+00  0.00000000E+00
  0.00000000E+00  0.00000000E+00  0.00000000E+00
  0.00000000E+00  0.00000000E+00  0.00000000E+00
  0.00000000E+00  0.00000000E+00  0.00000000E+00
  0.00000000E+00  0.00000000E+00  0.00000000E+00
  0.00000000E+00  0.00000000E+00  0.00000000E+00
  0.00000000E+00  0.00000000E+00  0.00000000E+00
  0.00000000E+00  0.00000000E+00  0.00000000E+00
  0.00000000E+00  0.00000000E+00  0.00000000E+00
  0.00000000E+00  0.00000000E+00  0.00000000E+00
  0.00000000E+00  0.00000000E+00  0.00000000E+00
  0.00000000E+00  0.00000000E+00  0.00000000E+00
  0.00000000E+00  0.00000000E+00  0.00000000E+00
  0.00000000E+00  0.00000000E+00  0.00000000E+00
  0.00000000E+00  0.00000000E+00  0.00000000E+00
  0.00000000E+00  0.00000000E+00  0.00000000E+00
  0.00000000E+00  0.00000000E+00  0.00000000E+00
  0.00000000E+00  0.00000000E+00  0.00000000E+00
  0.00000000E+00  0.00000000E+00  0.00000000E+00
  0.00000000E+00  0.00000000E+00  0.00000000E+00
  0.00000000E+00  0.00000000E+00  0.00000000E+00
  0.00000000E+00  0.00000000E+00  0.00000000E+00
  0.00000000E+00  0.00000000E+00  0.00000000E+00
  0.00000000E+00  0.00000000E+00  0.00000000E+00
  0.00000000E+00  0.00000000E+00  0.00000000E+00
  0.00000000E+00  0.00000000E+00  0.00000000E+00
  0.00000000E+00  0.00000000E+00  0.00000000E+00
  0.00000000E+00  0.00000000E+00  0.00000000E+00
  0.00000000E+00  0.00000000E+00  0.00000000E+00
  0.00000000E+00  0.00000000E+00  0.00000000E+00
  0.00000000E+00  0.00000000E+00  0.00000000E+00
  0.00000000E+00  0.00000000E+00  0.00000000E+00
  0.00000000E+00  0.00000000E+00  0.00000000E+00
  0.00000000E+00  0.00000000E+00  0.00000000E+00
  0.00000000E+00  0.00000000E+00  0.00000000E+00
  0.00000000E+00  0.00000000E+00  0.00000000E+00
  0.00000000E+00  0.00000000E+00  0.00000000E+00
  0.00000000E+00  0.00000000E+00  0.00000000E+00
  0.00000000E+00  0.00000000E+00  0.00000000E+00
  0.00000000E+00  0.00000000E+00  0.00000000E+00
  0.00000000E+00  0.00000000E+00  0.00000000E+00
  0.00000000E+00  0.00000000E+00  0.00000000E+00
  0.00000000E+00  0.00000000E+00  0.00000000E+00
  0.00000000E+00  0.00000000E+00  0.00000000E+00
  0.00000000E+00  0.00000000E+00  0.00000000E+00
  0.00000000E+00  0.00000000E+00  0.00000000E+00
  0.00000000E+00  0.00000000E+00  0.00000000E+00
  0.00000000E+00  0.00000000E+00  0.00000000E+00
  0.00000000E+00  0.00000000E+00  0.00000000E+00
  0.00000000E+00  0.00000000E+00  0.00000000E+00
  0.00000000E+00  0.00000000E+00  0.00000000E+00
  0.00000000E+00  0.00000000E+00  0.00000000E+00
  0.00000000E+00  0.00000000E+00  0.00000000E+00
  0.00000000E+00  0.00000000E+00  0.00000000E+00
  0.00000000E+00  0.00000000E+00  0.00000000E+00
  0.00000000E+00  0.00000000E+00  0.00000000E+00
  0.00000000E+00  0.00000000E+00  0.00000000E+00
  0.00000000E+00  0.00000000E+00  0.00000000E+00
  0.00000000E+00  0.00000000E+00  0.00000000E+00
  0.00000000E+00  0.00000000E+00  0.00000000E+00
  0.00000000E+00  0.00000000E+00  0.00000000E+00
  0.00000000E+00  0.00000000E+00  0.00000000E+00
  0.00000000E+00  0.00000000E+00  0.00000000E+00
  0.00000000E+00  0.00000000E+00  0.00000000E+00
  0.00000000E+00  0.00000000E+00  0.00000000E+00
  0.00000000E+00  0.00000000E+00  0.00000000E+00
  0.00000000E+00  0.00000000E+00  0.00000000E+00
  0.00000000E+00  0.00000000E+00  0.00000000E+00
  0.00000000E+00  0.00000000E+00  0.00000000E+00
  0.00000000E+00  0.00000000E+00  0.00000000E+00
  0.00000000E+00  0.00000000E+00  0.00000000E+00
  0.00000000E+00  0.00000000E+00  0.00000000E+00
  0.00000000E+00  0.00000000E+00  0.00000000E+00
  0.00000000E+00  0.00000000E+00  0.00000000E+00
  0.00000000E+00  0.00000000E+00  0.00000000E+00
  0.00000000E+00  0.00000000E+00  0.00000000E+00
  0.00000000E+00  0.00000000E+00  0.00000000E+00
  0.00000000E+00  0.00000000E+00  0.00000000E+00
  0.00000000E+00  0.00000000E+00  0.00000000E+00
  0.00000000E+00  0.00000000E+00  0.00000000E+00
  0.00000000E+00  0.00000000E+00  0.00000000E+00
  0.00000000E+00  0.00000000E+00  0.00000000E+00
  0.00000000E+00  0.00000000E+00  0.00000000E+00
  0.00000000E+00  0.00000000E+00  0.00000000E+00
  0.00000000E+00  0.00000000E+00  0.00000000E+00
  0.00000000E+00  0.00000000E+00  0.00000000E+00
  0.00000000E+00  0.00000000E+00  0.00000000E+00
  0.00000000E+00  0.00000000E+00  0.00000000E+00
  0.00000000E+00  0.00000000E+00  0.00000000E+00
  0.00000000E+00  0.00000000E+00  0.00000000E+00
  0.00000000E+00  0.00000000E+00  0.00000000E+00
  0.00000000E+00  0.00000000E+00  0.00000000E+00
  0.00000000E+00  0.00000000E+00  0.00000000E+00
  0.00000000E+00  0.00000000E+00  0.00000000E+00
  0.00000000E+00  0.00000000E+00  0.00000000E+00
  0.00000000E+00  0.00000000E+00  0.00000000E+00
  0.00000000E+00  0.00000000E+00  0.00000000E+00
  0.00000000E+00  0.00000000E+00  0.00000000E+00
  0.00000000E+00  0.00000000E+00  0.00000000E+00
  0.00000000E+00  0.00000000E+00  0.00000000E+00
  0.00000000E+00  0.00000000E+00  0.00000000E+00
  0.00000000E+00  0.00000000E+00  0.00000000E+00
  0.00000000E+00  0.00000000E+00  0.00000000E+00
  0.00000000E+00  0.00000000E+00  0.00000000E+00
  0.00000000E+00  0.00000000E+00  0.00000000E+00
  0.00000000E+00  0.00000000E+00  0.00000000E+00
  0.00000000E+00  0.00000000E+00  0.00000000E+00
  0.00000000E+00  0.00000000E+00  0.00000000E+00
  0.00000000E+00  0.00000000E+00  0.00000000E+00
  0.00000000E+00  0.00000000E+00  0.00000000E+00
  0.00000000E+00  0.00000000E+00  0.00000000E+00
  0.00000000E+00  0.00000000E+00  0.00000000E+00
  0.00000000E+00  0.00000000E+00  0.00000000E+00
  0.00000000E+00  0.00000000E+00  0.00000000E+00
  0.00000000E+00  0.00000000E+00  0.00000000E+00
  0.00000000E+00  0.00000000E+00  0.00000000E+00
  0.00000000E+00  0.00000000E+00  0.00000000E+00
  0.00000000E+00  0.00000000E+00  0.00000000E+00
  0.00000000E+00  0.00000000E+00  0.00000000E+00
  0.00000000E+00  0.00000000E+00  0.00000000E+00
  0.00000000E+00  0.00000000E+00  0.00000000E+00
  0.00000000E+00  0.00000000E+00  0.00000000E+00
  0.00000000E+00  0.00000000E+00  0.00000000E+00
  0.00000000E+00  0.00000000E+00  0.00000000E+00
  0.00000000E+00  0.00000000E+00  0.00000000E+00
  0.00000000E+00  0.00000000E+00  0.00000000E+00
  0.00000000E+00  0.00000000E+00  0.00000000E+00
  0.00000000E+00  0.00000000E+00  0.00000000E+00
  0.00000000E+00  0.00000000E+00  0.00000000E+00
  0.00000000E+00  0.00000000E+00  0.00000000E+00
  0.00000000E+00  0.00000000E+00  0.00000000E+00
  0.00000000E+00  0.00000000E+00  0.00000000E+00
  0.00000000E+00  0.00000000E+00  0.00000000E+00
  0.00000000E+00  0.00000000E+00  0.00000000E+00
  0.00000000E+00  0.00000000E+00  0.00000000E+00
  0.00000000E+00  0.00000000E+00  0.00000000E+00
  0.00000000E+00  0.00000000E+00  0.00000000E+00
  0.00000000E+00  0.00000000E+00  0.00000000E+00
  0.00000000E+00  0.00000000E+00  0.00000000E+00
  0.00000000E+00  0.00000000E+00  0.00000000E+00
  0.00000000E+00  0.00000000E+00  0.00000000E+00
  0.00000000E+00  0.00000000E+00  0.00000000E+00
  0.00000000E+00  0.00000000E+00  0.00000000E+00
  0.00000000E+00  0.00000000E+00  0.00000000E+00
  0.00000000E+00  0.00000000E+00  0.00000000E+00
  0.00000000E+00  0.00000000E+00  0.00000000E+00
  0.00000000E+00  0.00000000E+00  0.00000000E+00
  0.00000000E+00  0.00000000E+00  0.00000000E+00
  0.00000000E+00  0.00000000E+00  0.00000000E+00
  0.00000000E+00  0.00000000E+00  0.00000000E+00
  0.00000000E+00  0.00000000E+00  0.00000000E+00
  0.00000000E+00  0.00000000E+00  0.00000000E+00
  0.00000000E+00  0.00000000E+00  0.00000000E+00
  0.00000000E+00  0.00000000E+00  0.00000000E+00
  0.00000000E+00  0.00000000E+00  0.00000000E+00
  0.00000000E+00  0.00000000E+00  0.00000000E+00
  0.00000000E+00  0.00000000E+00  0.00000000E+00
  0.00000000E+00  0.00000000E+00  0.00000000E+00
  0.00000000E+00  0.00000000E+00  0.00000000E+00
  0.00000000E+00  0.00000000E+00  0.00000000E+00
  0.00000000E+00  0.00000000E+00  0.00000000E+00
  0.00000000E+00  0.00000000E+00  0.00000000E+00
  0.00000000E+00  0.00000000E+00  0.00000000E+00
  0.00000000E+00  0.00000000E+00  0.00000000E+00
  0.00000000E+00  0.00000000E+00  0.00000000E+00
  0.00000000E+00  0.00000000E+00  0.00000000E+00
  0.00000000E+00  0.00000000E+00  0.00000000E+00
  0.00000000E+00  0.00000000E+00  0.00000000E+00
  0.00000000E+00  0.00000000E+00  0.00000000E+00
  0.00000000E+00  0.00000000E+00  0.00000000E+00
  0.00000000E+00  0.00000000E+00  0.00000000E+00
  0.00000000E+00  0.00000000E+00  0.00000000E+00
  0.00000000E+00  0.00000000E+00  0.00000000E+00
  0.00000000E+00  0.00000000E+00  0.00000000E+00
  0.00000000E+00  0.00000000E+00  0.00000000E+00
  0.00000000E+00  0.00000000E+00  0.00000000E+00
