In48 Ga6 Cu42 Ag12 Se108                
   1.0000000000000000     
    16.1913222561397063   -0.0562060513306808   -7.2574398723214042
    -3.1934668626545721   15.8912018117455887   -7.2436609452802418
     0.0278532845883820    0.0274534709374314   21.7930008185722954
   In   Ga   Cu   Ag   Se
    48     6    42    12   108
Direct
  0.1650478522274668  0.4952924582747400  0.0011533289012604
  0.5035977111019463  0.4979806072818178  0.0038002116060412
  0.8360202029485535  0.4999921210966818  0.0019744011226877
  0.1627638315350097  0.8396271851967256  0.0000820021370203
  0.5033047318417516  0.8399579266536534  0.0021021245284487
  0.8347753214922733  0.8377471595782069  0.0000020540914605
  0.1691630891236073  0.1659138551191077  0.0021469593144019
  0.1685814592802117  0.5028778776150347  0.3358059770911339
  0.5002468429608413  0.5000954966224143  0.3322082474140657
  0.8299107595936022  0.4981128548428089  0.3308237145857404
  0.1666267321932224  0.8331696161406015  0.3331216890658055
  0.4992404670169179  0.8321078628520695  0.3321510011551041
  0.8345017660128846  0.8320910177947098  0.3346110545922585
  0.1693073707196717  0.1666586259713654  0.3341863932231490
  0.4962439975248856  0.1652440305378562  0.3310069615676099
  0.8327368183453459  0.1667016429795964  0.3321511309186107
  0.1683530218470111  0.5004661523512084  0.6647118353900723
  0.4965316815551546  0.4983389605637782  0.6613552009343024
  0.8311546617687213  0.5047693741054431  0.6690058440982654
  0.1679217059731428  0.8358942510727871  0.6649625896455049
  0.4997514645614274  0.8338074219972569  0.6666036744434507
  0.8320245994063313  0.8343805430017781  0.6680689804004558
  0.1639845998542526  0.1616281367307337  0.6652327850476141
  0.5029968362960986  0.1641229953109686  0.6665162306241754
  0.8340250513898297  0.1631977586696820  0.6666572401239392
  0.2494487062187574  0.4190738973746306  0.1672197366852259
  0.9179364084062840  0.4153578275991947  0.1670387696150257
  0.2499012349791130  0.7500223293070363  0.1680902270458873
  0.5835230595850902  0.7504123860423846  0.1686490239541030
  0.9195592322587487  0.7479976348178283  0.1672278401527905
  0.5818683070434787  0.0871306312967377  0.1668064696781286
  0.9170867687417470  0.0876204229199615  0.1662922746889350
  0.5837013592129736  0.4187110237942875  0.5000227839045479
  0.9144149433015656  0.4192961925784573  0.4997883084271351
  0.2491741309875763  0.7507354862676294  0.4981348484338639
  0.5819389443290035  0.7494700663911900  0.4987981692611996
  0.9154968847899880  0.7492982090834204  0.4980602771948881
  0.2537665987916995  0.0791120514154144  0.5001988180210404
  0.5811869922743185  0.0806062336660034  0.4988890152210317
  0.9149651305406010  0.0780465823895113  0.4979694766124325
  0.2494072611231175  0.4111203012520477  0.8322624036831101
  0.5863886376981640  0.4155252057957028  0.8333571167043914
  0.9159275276284191  0.4133383607267476  0.8331294398262443
  0.2513704078494001  0.7581109037922360  0.8336537671025184
  0.5822660087982285  0.7550415604546217  0.8335451333185802
  0.2514853120418579  0.0805674296249492  0.8355241762884802
  0.5852904782549118  0.0805811064740212  0.8345800558276508
  0.9164692624739956  0.0840195985604240  0.8363858716387611
  0.4981836882204433  0.1668668850862147  0.0035332061746445
  0.8322626895083758  0.1640932256999363  0.9980374823598197
  0.5792097745003204  0.4128204382109857  0.1660124070342945
  0.2516864026027150  0.0797172610213579  0.1643464945255957
  0.2507335881408395  0.4197602606591317  0.5003296767905212
  0.9144960530474577  0.7562339160612055  0.8349315971299376
  0.9977048800679569  0.3307898895449384  0.9972002033536143
  0.3357972111102541  0.3343088458555954  0.0045450554187383
  0.0018241984174097  0.6715968273503279  0.0030357593568908
  0.6676155579198948  0.6646458036276073  0.0028299308738582
  0.9973960578364327  0.9963737141618978  0.9987980590404391
  0.3331306161944738  0.0019929008609409  0.0024370382052581
  0.6665697038140763  0.0084434941775910  0.9974356786467098
  0.0004540090205296  0.3390133738022953  0.3363952167424600
  0.6647330745608500  0.3354157739055381  0.3272339517944403
  0.9989763568787922  0.6653576767422749  0.3325685703552708
  0.3325590222742818  0.6674100276086534  0.3330189327488497
  0.6649020834903752  0.6617994401865985  0.3288751080354544
  0.0013770410358305  0.9950181367226776  0.3319233272143833
  0.3325208046129191  0.0010097344145876  0.3307341178826064
  0.6632736013725733  0.9985561791635007  0.3337129808169550
  0.0003576715134699  0.3310301326507599  0.6701612619047097
  0.3347034005977534  0.3299743985013066  0.6616972040647653
  0.6630133081160281  0.3288351736121697  0.6661286211913477
  0.3322807923904918  0.6681532546711964  0.6619392423653991
  0.6695317847488056  0.6721514162628210  0.6673383182572650
  0.9997994943655826  0.9998606448936727  0.6670436721132091
  0.3323910768101257  0.9959435189851220  0.6633048160572841
  0.6657189792943683  0.9983415121164896  0.6670992244610616
  0.0833866598618158  0.5819707240427974  0.1672461916578527
  0.4199064075895862  0.5778755942717098  0.1685409545664029
  0.7474314901623273  0.5857416183952751  0.1709078288073584
  0.0876787549978530  0.9205535264022373  0.1681152720154557
  0.4153164998100038  0.9235357898801624  0.1695408403694714
  0.4175020031450671  0.2487596832188430  0.1633245579591076
  0.7491370231325192  0.2493857801411679  0.1644842757935265
  0.0847880443269418  0.5815891935402604  0.4949457189567497
  0.4159227166548689  0.5871082176981588  0.5024322266258991
  0.7440030306567991  0.5819075081168421  0.4968615810798269
  0.0829755419573814  0.9146787574023705  0.4993304243509726
  0.4163935697825494  0.9152963047565947  0.4980299356602629
  0.7484458513013976  0.9125580637096462  0.4988357552411316
  0.4186323364724558  0.2506166159710048  0.5024682422060138
  0.0794547112802277  0.9211793913850244  0.8354539160741226
  0.4180145013628760  0.9219620424026544  0.8358957206163495
  0.7537708950161175  0.9198060718190249  0.8366857983336757
  0.0853792775551767  0.2473299899448875  0.8353203352621961
  0.7525912980236811  0.2459810413889159  0.8330747722108214
  0.6740175503097063  0.3280147965915390  0.0074756396900781
  0.3368780620786538  0.6703991698400102  0.0067985043487369
  0.3355273757588293  0.3280157578422163  0.3344859803409719
  0.0010058921124596  0.6689725576997887  0.6660550310062945
  0.7496109855660862  0.9156610379586567  0.1650488028672683
  0.0769320310191119  0.2413056023022193  0.1585593225402491
  0.0878474143722272  0.2502068556467876  0.5012197594453838
  0.7497188308648575  0.2547575046500654  0.4993723439034099
  0.0817494937476937  0.5823623346259481  0.8330937363138986
  0.4182524958194023  0.5852478180359029  0.8315712680610972
  0.7521755282380695  0.5885302613880512  0.8329316919128757
  0.4122048836924392  0.2448090006552093  0.8327586411642969
  0.1111483378119544  0.4550957252059931  0.0834151220280077
  0.4549618074036346  0.4545038964845460  0.0884637880602597
  0.7895103495751741  0.4683259219060076  0.0917906259273238
  0.1167887084996337  0.7943200795703191  0.0848041565684099
  0.4578255800826696  0.8053256741209580  0.0912405489795489
  0.7861940994672665  0.7830874699005221  0.0776769199067928
  0.1238101487100494  0.1100812436043626  0.0810230808614776
  0.4481214777076303  0.1260180065172918  0.0792423056543612
  0.7841966191239251  0.1301181724539617  0.0787175997581357
  0.1227138029153423  0.4562969295492820  0.4200852161151118
  0.4536831502345748  0.4672810707034074  0.4214629761928705
  0.7784286949419084  0.4593388810628838  0.4158455109255925
  0.1128538943292199  0.7907073327506140  0.4149533005052604
  0.4471438379738331  0.7909945521480637  0.4153490813813150
  0.7788058919526151  0.7878858102517867  0.4140038543846885
  0.1195203851447886  0.1140471645883778  0.4119884355333738
  0.4468718610635349  0.1258482059181318  0.4166338971659727
  0.7821940736707731  0.1172203033989589  0.4112999206366439
  0.1179686907464372  0.4512117589780900  0.7446567974057103
  0.4521158748160943  0.4496746708065658  0.7438336062837010
  0.7812385996130686  0.4487923772822526  0.7446903368676487
  0.1205867967333631  0.8051560378379392  0.7545450214545042
  0.4454725060353724  0.7949855097877006  0.7501618108799448
  0.7870950463352457  0.7939351162059793  0.7564666213308371
  0.1162870643779144  0.1228038762015373  0.7520125672910467
  0.4514831195389135  0.1147270233430433  0.7446968841911854
  0.7815271335993828  0.1217694461421104  0.7494665681466657
  0.3000005051073629  0.6190876645330761  0.0904883844591780
  0.6352781318480822  0.6262990298558435  0.0857811552586227
  0.9712602126208836  0.6247730562494382  0.0834515764716457
  0.2998693322105055  0.9637958402646802  0.0866705858526657
  0.6323261622058567  0.9681530869346204  0.0793509075071057
  0.9704401462646786  0.9615831442417075  0.0862480151510994
  0.3013088252519083  0.2932929225759793  0.0857307456414134
  0.6217631227280833  0.2875560794468015  0.0896214721707409
  0.9522321322722078  0.2855572380432747  0.0712804268634528
  0.3032740385017973  0.6270893720927262  0.4172603660880014
  0.6335257850465297  0.6254901230504117  0.4143850386482839
  0.9667747316368747  0.6227346484680254  0.4144717766568107
  0.3034332234505754  0.9561673499135139  0.4137778589060090
  0.6346290545328230  0.9567700693957235  0.4169597973495769
  0.9697862305656386  0.9561646676099045  0.4156454215698560
  0.2989902924900960  0.2967900680293596  0.4288024958291956
  0.6249089101795420  0.2953166861377952  0.4069264951894880
  0.9616167982119990  0.2956803493993760  0.4138592689293006
  0.2951145687552810  0.6322013964725102  0.7449138949139922
  0.6250486640322137  0.6295153635794222  0.7430341555831106
  0.9559210871847483  0.6370026652262197  0.7562941107671293
  0.3038172231924321  0.9597487952863943  0.7496018018882538
  0.6369022218137133  0.9562089481130087  0.7508575714354961
  0.9666214501597707  0.9599142855035367  0.7503508255059970
  0.2935195471407539  0.2896905369164955  0.7402921657821935
  0.6378220426413748  0.2888648879011768  0.7520379894624440
  0.9700817661398418  0.2887114599719709  0.7522466341623044
  0.2057667564950876  0.3711997218958274  0.2490356166174550
  0.5401021560328800  0.3663995927644592  0.2446402676550505
  0.8744766986603736  0.3638682993353939  0.2492554146675090
  0.2071997730173436  0.6972518158121375  0.2503024255600792
  0.5400955468565414  0.6960657568405182  0.2491207477544037
  0.8745456527665070  0.6975602411021811  0.2503674768113484
  0.2126499136757403  0.0360161606474421  0.2455291351171169
  0.5428337897645008  0.0332685911916286  0.2506892354690464
  0.8841195675948015  0.0385460507324922  0.2542087368689110
  0.2205251538310762  0.3754835493038087  0.5833875788783160
  0.5432636276942659  0.3641169108916245  0.5824148388241710
  0.8847843009004990  0.3766313406700448  0.5923089385758331
  0.2064307562702083  0.6990175285455322  0.5803858180093115
  0.5420828064009626  0.6995231312761874  0.5838227029582157
  0.8641957507963269  0.6999175491405509  0.5766456934204527
  0.2080789432836809  0.0283134271538685  0.5822187521339472
  0.5415364308275556  0.0280886721010063  0.5822408626012958
  0.8735067248330779  0.0271968227726234  0.5818885861734913
  0.2101786597024144  0.3616499484403164  0.9182003751201080
  0.5451100669071209  0.3693266305148981  0.9179904141878126
  0.8731710086632205  0.3629479426860058  0.9161853651724741
  0.2096354127885363  0.7118219620964155  0.9179559478338888
  0.5517969642464564  0.7083208515201136  0.9241045191404282
  0.8862281226609312  0.7116083529299075  0.9186475330264940
  0.2074288051916682  0.0300140778185138  0.9178122478628978
  0.5382664945128539  0.0422915460758304  0.9220875466729481
  0.8752465628784378  0.0382353696948243  0.9234937790994877
  0.0422733199442575  0.5514534574317267  0.2509435135034579
  0.3747879192212125  0.5527168343259206  0.2513907907874753
  0.6980469060999397  0.5405583404306569  0.2431913179066711
  0.0430905088469657  0.8842523298250171  0.2479344061850952
  0.3749090443323269  0.8854454033618779  0.2496205391501647
  0.7072092438388822  0.8834819509057183  0.2558746535322953
  0.0415504721958371  0.2206703178547897  0.2579509008344942
  0.3694609670917686  0.2036489514806163  0.2371124641643974
  0.7090066224639173  0.2193671929568808  0.2491343555578425
  0.0444962632872787  0.5466861948319348  0.5765922444272320
  0.3675391325201005  0.5471337767909148  0.5774819693262572
  0.7074181967845661  0.5544429006838740  0.5835663318138486
  0.0399582470998752  0.8855135746435110  0.5822622234251753
  0.3750212112849027  0.8840334124564677  0.5810157495324191
  0.7067049041383271  0.8848267463238315  0.5834878201134757
  0.0366317488150969  0.2137767792900220  0.5864622078796700
  0.3774105644949017  0.2146530742623085  0.5830633662540237
  0.7056962628469137  0.2141764239671105  0.5867201063884124
  0.0386357693641486  0.5491246999636346  0.9232335794887874
  0.3759382458618177  0.5415732123764059  0.9178219975204911
  0.7083629831879321  0.5507153013964654  0.9214637251989544
  0.0321735421133482  0.8815755376797014  0.9109554699944624
  0.3773887244379495  0.8907003376286156  0.9192053967153768
  0.7081991739037576  0.8899611354286705  0.9178286165908389
  0.0432268605851220  0.2172612849425164  0.9185225723870403
  0.3783320150805807  0.2137061829648559  0.9282741653433888
  0.7172256912834953  0.2071479676413048  0.9155036076799092

  0.00000000E+00  0.00000000E+00  0.00000000E+00
  0.00000000E+00  0.00000000E+00  0.00000000E+00
  0.00000000E+00  0.00000000E+00  0.00000000E+00
  0.00000000E+00  0.00000000E+00  0.00000000E+00
  0.00000000E+00  0.00000000E+00  0.00000000E+00
  0.00000000E+00  0.00000000E+00  0.00000000E+00
  0.00000000E+00  0.00000000E+00  0.00000000E+00
  0.00000000E+00  0.00000000E+00  0.00000000E+00
  0.00000000E+00  0.00000000E+00  0.00000000E+00
  0.00000000E+00  0.00000000E+00  0.00000000E+00
  0.00000000E+00  0.00000000E+00  0.00000000E+00
  0.00000000E+00  0.00000000E+00  0.00000000E+00
  0.00000000E+00  0.00000000E+00  0.00000000E+00
  0.00000000E+00  0.00000000E+00  0.00000000E+00
  0.00000000E+00  0.00000000E+00  0.00000000E+00
  0.00000000E+00  0.00000000E+00  0.00000000E+00
  0.00000000E+00  0.00000000E+00  0.00000000E+00
  0.00000000E+00  0.00000000E+00  0.00000000E+00
  0.00000000E+00  0.00000000E+00  0.00000000E+00
  0.00000000E+00  0.00000000E+00  0.00000000E+00
  0.00000000E+00  0.00000000E+00  0.00000000E+00
  0.00000000E+00  0.00000000E+00  0.00000000E+00
  0.00000000E+00  0.00000000E+00  0.00000000E+00
  0.00000000E+00  0.00000000E+00  0.00000000E+00
  0.00000000E+00  0.00000000E+00  0.00000000E+00
  0.00000000E+00  0.00000000E+00  0.00000000E+00
  0.00000000E+00  0.00000000E+00  0.00000000E+00
  0.00000000E+00  0.00000000E+00  0.00000000E+00
  0.00000000E+00  0.00000000E+00  0.00000000E+00
  0.00000000E+00  0.00000000E+00  0.00000000E+00
  0.00000000E+00  0.00000000E+00  0.00000000E+00
  0.00000000E+00  0.00000000E+00  0.00000000E+00
  0.00000000E+00  0.00000000E+00  0.00000000E+00
  0.00000000E+00  0.00000000E+00  0.00000000E+00
  0.00000000E+00  0.00000000E+00  0.00000000E+00
  0.00000000E+00  0.00000000E+00  0.00000000E+00
  0.00000000E+00  0.00000000E+00  0.00000000E+00
  0.00000000E+00  0.00000000E+00  0.00000000E+00
  0.00000000E+00  0.00000000E+00  0.00000000E+00
  0.00000000E+00  0.00000000E+00  0.00000000E+00
  0.00000000E+00  0.00000000E+00  0.00000000E+00
  0.00000000E+00  0.00000000E+00  0.00000000E+00
  0.00000000E+00  0.00000000E+00  0.00000000E+00
  0.00000000E+00  0.00000000E+00  0.00000000E+00
  0.00000000E+00  0.00000000E+00  0.00000000E+00
  0.00000000E+00  0.00000000E+00  0.00000000E+00
  0.00000000E+00  0.00000000E+00  0.00000000E+00
  0.00000000E+00  0.00000000E+00  0.00000000E+00
  0.00000000E+00  0.00000000E+00  0.00000000E+00
  0.00000000E+00  0.00000000E+00  0.00000000E+00
  0.00000000E+00  0.00000000E+00  0.00000000E+00
  0.00000000E+00  0.00000000E+00  0.00000000E+00
  0.00000000E+00  0.00000000E+00  0.00000000E+00
  0.00000000E+00  0.00000000E+00  0.00000000E+00
  0.00000000E+00  0.00000000E+00  0.00000000E+00
  0.00000000E+00  0.00000000E+00  0.00000000E+00
  0.00000000E+00  0.00000000E+00  0.00000000E+00
  0.00000000E+00  0.00000000E+00  0.00000000E+00
  0.00000000E+00  0.00000000E+00  0.00000000E+00
  0.00000000E+00  0.00000000E+00  0.00000000E+00
  0.00000000E+00  0.00000000E+00  0.00000000E+00
  0.00000000E+00  0.00000000E+00  0.00000000E+00
  0.00000000E+00  0.00000000E+00  0.00000000E+00
  0.00000000E+00  0.00000000E+00  0.00000000E+00
  0.00000000E+00  0.00000000E+00  0.00000000E+00
  0.00000000E+00  0.00000000E+00  0.00000000E+00
  0.00000000E+00  0.00000000E+00  0.00000000E+00
  0.00000000E+00  0.00000000E+00  0.00000000E+00
  0.00000000E+00  0.00000000E+00  0.00000000E+00
  0.00000000E+00  0.00000000E+00  0.00000000E+00
  0.00000000E+00  0.00000000E+00  0.00000000E+00
  0.00000000E+00  0.00000000E+00  0.00000000E+00
  0.00000000E+00  0.00000000E+00  0.00000000E+00
  0.00000000E+00  0.00000000E+00  0.00000000E+00
  0.00000000E+00  0.00000000E+00  0.00000000E+00
  0.00000000E+00  0.00000000E+00  0.00000000E+00
  0.00000000E+00  0.00000000E+00  0.00000000E+00
  0.00000000E+00  0.00000000E+00  0.00000000E+00
  0.00000000E+00  0.00000000E+00  0.00000000E+00
  0.00000000E+00  0.00000000E+00  0.00000000E+00
  0.00000000E+00  0.00000000E+00  0.00000000E+00
  0.00000000E+00  0.00000000E+00  0.00000000E+00
  0.00000000E+00  0.00000000E+00  0.00000000E+00
  0.00000000E+00  0.00000000E+00  0.00000000E+00
  0.00000000E+00  0.00000000E+00  0.00000000E+00
  0.00000000E+00  0.00000000E+00  0.00000000E+00
  0.00000000E+00  0.00000000E+00  0.00000000E+00
  0.00000000E+00  0.00000000E+00  0.00000000E+00
  0.00000000E+00  0.00000000E+00  0.00000000E+00
  0.00000000E+00  0.00000000E+00  0.00000000E+00
  0.00000000E+00  0.00000000E+00  0.00000000E+00
  0.00000000E+00  0.00000000E+00  0.00000000E+00
  0.00000000E+00  0.00000000E+00  0.00000000E+00
  0.00000000E+00  0.00000000E+00  0.00000000E+00
  0.00000000E+00  0.00000000E+00  0.00000000E+00
  0.00000000E+00  0.00000000E+00  0.00000000E+00
  0.00000000E+00  0.00000000E+00  0.00000000E+00
  0.00000000E+00  0.00000000E+00  0.00000000E+00
  0.00000000E+00  0.00000000E+00  0.00000000E+00
  0.00000000E+00  0.00000000E+00  0.00000000E+00
  0.00000000E+00  0.00000000E+00  0.00000000E+00
  0.00000000E+00  0.00000000E+00  0.00000000E+00
  0.00000000E+00  0.00000000E+00  0.00000000E+00
  0.00000000E+00  0.00000000E+00  0.00000000E+00
  0.00000000E+00  0.00000000E+00  0.00000000E+00
  0.00000000E+00  0.00000000E+00  0.00000000E+00
  0.00000000E+00  0.00000000E+00  0.00000000E+00
  0.00000000E+00  0.00000000E+00  0.00000000E+00
  0.00000000E+00  0.00000000E+00  0.00000000E+00
  0.00000000E+00  0.00000000E+00  0.00000000E+00
  0.00000000E+00  0.00000000E+00  0.00000000E+00
  0.00000000E+00  0.00000000E+00  0.00000000E+00
  0.00000000E+00  0.00000000E+00  0.00000000E+00
  0.00000000E+00  0.00000000E+00  0.00000000E+00
  0.00000000E+00  0.00000000E+00  0.00000000E+00
  0.00000000E+00  0.00000000E+00  0.00000000E+00
  0.00000000E+00  0.00000000E+00  0.00000000E+00
  0.00000000E+00  0.00000000E+00  0.00000000E+00
  0.00000000E+00  0.00000000E+00  0.00000000E+00
  0.00000000E+00  0.00000000E+00  0.00000000E+00
  0.00000000E+00  0.00000000E+00  0.00000000E+00
  0.00000000E+00  0.00000000E+00  0.00000000E+00
  0.00000000E+00  0.00000000E+00  0.00000000E+00
  0.00000000E+00  0.00000000E+00  0.00000000E+00
  0.00000000E+00  0.00000000E+00  0.00000000E+00
  0.00000000E+00  0.00000000E+00  0.00000000E+00
  0.00000000E+00  0.00000000E+00  0.00000000E+00
  0.00000000E+00  0.00000000E+00  0.00000000E+00
  0.00000000E+00  0.00000000E+00  0.00000000E+00
  0.00000000E+00  0.00000000E+00  0.00000000E+00
  0.00000000E+00  0.00000000E+00  0.00000000E+00
  0.00000000E+00  0.00000000E+00  0.00000000E+00
  0.00000000E+00  0.00000000E+00  0.00000000E+00
  0.00000000E+00  0.00000000E+00  0.00000000E+00
  0.00000000E+00  0.00000000E+00  0.00000000E+00
  0.00000000E+00  0.00000000E+00  0.00000000E+00
  0.00000000E+00  0.00000000E+00  0.00000000E+00
  0.00000000E+00  0.00000000E+00  0.00000000E+00
  0.00000000E+00  0.00000000E+00  0.00000000E+00
  0.00000000E+00  0.00000000E+00  0.00000000E+00
  0.00000000E+00  0.00000000E+00  0.00000000E+00
  0.00000000E+00  0.00000000E+00  0.00000000E+00
  0.00000000E+00  0.00000000E+00  0.00000000E+00
  0.00000000E+00  0.00000000E+00  0.00000000E+00
  0.00000000E+00  0.00000000E+00  0.00000000E+00
  0.00000000E+00  0.00000000E+00  0.00000000E+00
  0.00000000E+00  0.00000000E+00  0.00000000E+00
  0.00000000E+00  0.00000000E+00  0.00000000E+00
  0.00000000E+00  0.00000000E+00  0.00000000E+00
  0.00000000E+00  0.00000000E+00  0.00000000E+00
  0.00000000E+00  0.00000000E+00  0.00000000E+00
  0.00000000E+00  0.00000000E+00  0.00000000E+00
  0.00000000E+00  0.00000000E+00  0.00000000E+00
  0.00000000E+00  0.00000000E+00  0.00000000E+00
  0.00000000E+00  0.00000000E+00  0.00000000E+00
  0.00000000E+00  0.00000000E+00  0.00000000E+00
  0.00000000E+00  0.00000000E+00  0.00000000E+00
  0.00000000E+00  0.00000000E+00  0.00000000E+00
  0.00000000E+00  0.00000000E+00  0.00000000E+00
  0.00000000E+00  0.00000000E+00  0.00000000E+00
  0.00000000E+00  0.00000000E+00  0.00000000E+00
  0.00000000E+00  0.00000000E+00  0.00000000E+00
  0.00000000E+00  0.00000000E+00  0.00000000E+00
  0.00000000E+00  0.00000000E+00  0.00000000E+00
  0.00000000E+00  0.00000000E+00  0.00000000E+00
  0.00000000E+00  0.00000000E+00  0.00000000E+00
  0.00000000E+00  0.00000000E+00  0.00000000E+00
  0.00000000E+00  0.00000000E+00  0.00000000E+00
  0.00000000E+00  0.00000000E+00  0.00000000E+00
  0.00000000E+00  0.00000000E+00  0.00000000E+00
  0.00000000E+00  0.00000000E+00  0.00000000E+00
  0.00000000E+00  0.00000000E+00  0.00000000E+00
  0.00000000E+00  0.00000000E+00  0.00000000E+00
  0.00000000E+00  0.00000000E+00  0.00000000E+00
  0.00000000E+00  0.00000000E+00  0.00000000E+00
  0.00000000E+00  0.00000000E+00  0.00000000E+00
  0.00000000E+00  0.00000000E+00  0.00000000E+00
  0.00000000E+00  0.00000000E+00  0.00000000E+00
  0.00000000E+00  0.00000000E+00  0.00000000E+00
  0.00000000E+00  0.00000000E+00  0.00000000E+00
  0.00000000E+00  0.00000000E+00  0.00000000E+00
  0.00000000E+00  0.00000000E+00  0.00000000E+00
  0.00000000E+00  0.00000000E+00  0.00000000E+00
  0.00000000E+00  0.00000000E+00  0.00000000E+00
  0.00000000E+00  0.00000000E+00  0.00000000E+00
  0.00000000E+00  0.00000000E+00  0.00000000E+00
  0.00000000E+00  0.00000000E+00  0.00000000E+00
  0.00000000E+00  0.00000000E+00  0.00000000E+00
  0.00000000E+00  0.00000000E+00  0.00000000E+00
  0.00000000E+00  0.00000000E+00  0.00000000E+00
  0.00000000E+00  0.00000000E+00  0.00000000E+00
  0.00000000E+00  0.00000000E+00  0.00000000E+00
  0.00000000E+00  0.00000000E+00  0.00000000E+00
  0.00000000E+00  0.00000000E+00  0.00000000E+00
  0.00000000E+00  0.00000000E+00  0.00000000E+00
  0.00000000E+00  0.00000000E+00  0.00000000E+00
  0.00000000E+00  0.00000000E+00  0.00000000E+00
  0.00000000E+00  0.00000000E+00  0.00000000E+00
  0.00000000E+00  0.00000000E+00  0.00000000E+00
  0.00000000E+00  0.00000000E+00  0.00000000E+00
  0.00000000E+00  0.00000000E+00  0.00000000E+00
  0.00000000E+00  0.00000000E+00  0.00000000E+00
  0.00000000E+00  0.00000000E+00  0.00000000E+00
  0.00000000E+00  0.00000000E+00  0.00000000E+00
  0.00000000E+00  0.00000000E+00  0.00000000E+00
  0.00000000E+00  0.00000000E+00  0.00000000E+00
  0.00000000E+00  0.00000000E+00  0.00000000E+00
  0.00000000E+00  0.00000000E+00  0.00000000E+00
  0.00000000E+00  0.00000000E+00  0.00000000E+00
  0.00000000E+00  0.00000000E+00  0.00000000E+00
  0.00000000E+00  0.00000000E+00  0.00000000E+00
  0.00000000E+00  0.00000000E+00  0.00000000E+00
  0.00000000E+00  0.00000000E+00  0.00000000E+00
  0.00000000E+00  0.00000000E+00  0.00000000E+00
  0.00000000E+00  0.00000000E+00  0.00000000E+00
  0.00000000E+00  0.00000000E+00  0.00000000E+00
