In24 Ga30 Cu18 Ag36 Se108               
   1.0000000000000000     
    16.2743925507466507   -0.0561809349508302   -7.5003479345006330
    -3.3298384436349870   16.0058785402723487   -7.3621961924652517
     0.0936450409893635   -0.0898791189218201   21.6153866629588869
   In   Ga   Cu   Ag   Se
    24    30    18    36   108
Direct
  0.1602316878139973  0.4975563717605667  0.9951320632609466
  0.5041456081631210  0.4982778399465388  0.9991283065193741
  0.8296865617723199  0.5013041121567241  0.9964766289611333
  0.1636958469440444  0.1633440947443177  0.9973316735043838
  0.1647982038022491  0.5066718970971280  0.3317087333698154
  0.5029987928729014  0.5035362138800963  0.3308746002202838
  0.1627748876558428  0.8294970014649579  0.3370963230405550
  0.1640481155393658  0.1615307124039731  0.3316809397086899
  0.4987706945943771  0.1629984837451985  0.3316085554970982
  0.5016007216684528  0.5075079624173782  0.6730747792795739
  0.1729100938798069  0.8376020967728266  0.6708696497955984
  0.8348615247784110  0.8356729759879187  0.6716695100322383
  0.4985516254134978  0.1656074345044090  0.6677492584224325
  0.8388534191214561  0.1643531781286001  0.6696851556527079
  0.2469419023244868  0.4238651979372179  0.1660422194228772
  0.9082539345758320  0.4157759601262043  0.1633932214891587
  0.2491108573752143  0.7436250963923001  0.1637403714609960
  0.5894202126061856  0.7531064574442325  0.1678185704011952
  0.5890971341400686  0.0768454571598127  0.1635192283546587
  0.2491944287726255  0.4231982503207377  0.5028268930126671
  0.5873260979115571  0.4240950863155746  0.5031679334086263
  0.5837994514281348  0.7510117604697371  0.5020651799617042
  0.9147490080981413  0.7539785237323429  0.4981072464173550
  0.2508495495145624  0.4108180766590479  0.8284842888466315
  0.1587381808947939  0.8323359086167912  0.9948262022765419
  0.5028568290700974  0.8291221938411084  0.9940792683384032
  0.8327287649715700  0.8348489243248167  0.9993343355794764
  0.4992484530605381  0.1665107316349577  0.9957929974434734
  0.8311844143134834  0.1601357913348949  0.9967268905497875
  0.8318223327223748  0.5030455885738405  0.3349608746786430
  0.4960048439618987  0.8300420120613126  0.3321364175875203
  0.8377590725790682  0.8326336482292547  0.3292050148249430
  0.8377526770680603  0.1641738893347835  0.3354092887621363
  0.1695958809589158  0.5056306047262709  0.6693199923545166
  0.8346180622014430  0.5104399551108187  0.6700441094272165
  0.5029455883631613  0.8332674214198761  0.6751657596672160
  0.1671445428452074  0.1591713837517759  0.6686875935337611
  0.5852012805342994  0.4169932895830470  0.1629005845242446
  0.9137603392935461  0.7496725784824818  0.1630771528663217
  0.2413388298389663  0.0755834199351000  0.1597721824182514
  0.9107959001368826  0.0795955148932705  0.1622059230475159
  0.9168770256695851  0.4211156117701265  0.5024372904712280
  0.2566263968386124  0.7531134564857140  0.5067291250796302
  0.2430735814746399  0.0800403145765642  0.5021703669148678
  0.5831309455425853  0.0778789463001530  0.4992260284843297
  0.9261770003161232  0.0766083652028442  0.5018914901378437
  0.5787140160748692  0.4156995247308473  0.8341183053649104
  0.9182988575505107  0.4194054453600700  0.8308163174400320
  0.2571846109931215  0.7516369891118018  0.8351218992176399
  0.5839336233455725  0.7539951714373814  0.8337219533401523
  0.9122232476328236  0.7541827245107626  0.8389740112662096
  0.2546072025605284  0.0858491683129827  0.8351367123998585
  0.5833089550975075  0.0813722478980097  0.8385749888114660
  0.9167979907431700  0.0818317636883634  0.8340169884990729
  0.6622452207476215  0.3305184651006599  0.9955221750126597
  0.9941669614727999  0.6671844525474384  0.9990182411902140
  0.9911571945729349  0.9970069802855832  0.9960993598796222
  0.3291698666583471  0.6682473841020666  0.3301411944642183
  0.3387083900004271  0.6749769932060943  0.6774412297067158
  0.6747931143398347  0.6749440176313755  0.6742914901667874
  0.0077477430398361  0.0053206019242538  0.6726840170610799
  0.0771944393865027  0.5900087469164603  0.1624604523749653
  0.4197550002351136  0.5859361959397873  0.1703714435063759
  0.7537779942362945  0.5808897699445268  0.1678573555825622
  0.7555675265045494  0.9148030439016850  0.1656249905545195
  0.7557435376497992  0.5846885433681663  0.5076022520471781
  0.0833180622485941  0.9175775340544448  0.5060824248207041
  0.4145532457580998  0.5884893198153449  0.8308008416284309
  0.4211701264182963  0.9170595836905804  0.8360723458927950
  0.7524569942781625  0.9196834565096594  0.8387572336518687
  0.0814907439929868  0.2420831891658324  0.8279572680319021
  0.4203964317830042  0.2438934972438460  0.8346846718672936
  0.9949908061555846  0.3300472109487131  0.9919488423745690
  0.3388356262640855  0.3381216764616894  0.9978491515566432
  0.3287454252562370  0.6641584188741518  0.9948927580669675
  0.6662331337089640  0.6737578963698354  0.0006126637942003
  0.3372826782041614  0.9936196516561040  0.9993165979524221
  0.6665879078368633  0.9985132948111612  0.9978434108025098
  0.9954858970558575  0.3278601039145101  0.3348554464011215
  0.3356350725980946  0.3281336961685071  0.3281697123504728
  0.6772048396430748  0.3413690243878875  0.3350127357748462
  0.0009894261509444  0.6719838186408182  0.3306083333756717
  0.6607351047093815  0.6587511861422257  0.3261902638469678
  0.9921778116786015  0.9972815395758801  0.3303333685856700
  0.3331760298372402  0.0004634884887977  0.3365162553186067
  0.6748369675901031  0.9991875410406692  0.3399284988969882
  0.9939740034377138  0.3335933932529116  0.6620928478773820
  0.3345199992696024  0.3355886446853447  0.6745283309359209
  0.6709119803742425  0.3291197255571277  0.6636678107668530
  0.0026237481192481  0.6662662066006675  0.6693240624768961
  0.3336360870123727  0.9994939128398457  0.6672650881534352
  0.6657645811620441  0.9970468791356524  0.6763808396508608
  0.0743146532890009  0.9074660591533430  0.1546396765378688
  0.4111002583950381  0.9104189559601323  0.1589346474074986
  0.0771964688951741  0.2448459619299257  0.1606950431302039
  0.4164626577494204  0.2486413335153657  0.1623660979162267
  0.7427293466204148  0.2509834435342384  0.1622026879034522
  0.0844768835097227  0.5927267076243368  0.5050602830678130
  0.4185618077322246  0.5946537555130007  0.5050273626510773
  0.4176546317055809  0.9139709512290821  0.4999650683010088
  0.7557569163553524  0.9190854341032164  0.4963292843757472
  0.0839897209807887  0.2529143141859009  0.5071752029232215
  0.4133236719689819  0.2489689516087807  0.5038570196554062
  0.7551497060707604  0.2484559859727185  0.4982769915687513
  0.0837958585891627  0.5865356508530368  0.8333669390214311
  0.7513914843627845  0.5832286158859361  0.8306555366956943
  0.0817334566663988  0.9166915578274768  0.8362365744137747
  0.7419967520862443  0.2479201919950071  0.8371355646717262
  0.1146428043834788  0.4672083274954204  0.0850774773055036
  0.4650530733176481  0.4681254554097336  0.0940248410538373
  0.7767324211684752  0.4559981349219271  0.0772483618369009
  0.1195048263861622  0.7793291653147989  0.0691456161375825
  0.4623209293215069  0.7894148443927307  0.0734822880150006
  0.7984717209023273  0.7994040078241227  0.0855588134554779
  0.1176556848730428  0.1105422393417186  0.0771505614739709
  0.4650458269317141  0.1244756163286524  0.0773674316418393
  0.7966139041583986  0.1252406816414364  0.0821446386893570
  0.1198471883264460  0.4604170570401678  0.4139222459162539
  0.4567812779030618  0.4627949161022826  0.4158995782559671
  0.8017534313092440  0.4723760489718956  0.4263275022384079
  0.1314395572748523  0.7982921315007374  0.4350011248185979
  0.4517911228150879  0.7834276598348495  0.4068661952240191
  0.7892799449829084  0.7899000158593381  0.4027371277602043
  0.1261472602977776  0.1217350366553021  0.4215577836277191
  0.4659632782588261  0.1241104515133671  0.4242871158297419
  0.8095909437431530  0.1218358000296433  0.4211045641376430
  0.1272485011178972  0.4610769836229736  0.7450799451337389
  0.4608031490402240  0.4658704435960601  0.7612896025422557
  0.7997168271589246  0.4576992506061046  0.7459970766599753
  0.1353288453701538  0.7904573145546507  0.7568441420151188
  0.4591792037650535  0.7952660437739780  0.7556040938182278
  0.7909661088107356  0.7968170990847412  0.7604425268337565
  0.1286394008276019  0.1229651685184692  0.7529738649796514
  0.4656472395632676  0.1258307759003259  0.7601045612747157
  0.7971370360312093  0.1235010728575503  0.7573449675054604
  0.2987811477589091  0.6162739204999923  0.0832987749340575
  0.6369571926022815  0.6226800259039393  0.0890074726478858
  0.9597604441495662  0.6324074200571346  0.0838709985463950
  0.2779946709362378  0.9534842307019247  0.0780577473929327
  0.6297208754612242  0.9429762718134427  0.0800073993070214
  0.9479641471771316  0.9605264762290275  0.0760663878047509
  0.2881150539281165  0.2946609600836823  0.0805545465430484
  0.6157416127002477  0.2933399854936667  0.0737287500731512
  0.9459126448669792  0.2839545333294780  0.0734165885544869
  0.2923775900241736  0.6383935281867181  0.4163709934946880
  0.6382620340177496  0.6240550636593056  0.4257658677552030
  0.9520450441982362  0.6220338985133367  0.4104045678822956
  0.2861980896299272  0.9631268693041761  0.4230248262601108
  0.6146571078973011  0.9531914296959982  0.4151663995869654
  0.9622764611870736  0.9507578118485469  0.4209042613330496
  0.2892416891133038  0.2927836676487772  0.4161304213481927
  0.6253439536613570  0.2937285212752982  0.4144286376793289
  0.9504962749341814  0.2925944791417479  0.4225033018693551
  0.2934634625633947  0.6277237314433179  0.7513070164846880
  0.6271582474588016  0.6386408575535896  0.7517702805818871
  0.9498062233125708  0.6341115643352992  0.7555283383910734
  0.3021969895625745  0.9649552313209284  0.7633781583946089
  0.6241887694217567  0.9560341370328942  0.7625378895236778
  0.9606112925200776  0.9679127342640825  0.7506755729313568
  0.2937746229503873  0.2739824573850811  0.7513726482484628
  0.6204370548468674  0.2997847081873886  0.7526471000599884
  0.9654946226343171  0.2968541049036304  0.7585883526722981
  0.2051535949553696  0.3748826486559409  0.2480497221662077
  0.5465562504312871  0.3765592602184640  0.2430616131481997
  0.8707737740903170  0.3817599081819267  0.2561375630920395
  0.2042540075151109  0.6990488599393601  0.2490482393314082
  0.5333962062898934  0.7103233410415228  0.2482123482438183
  0.8682805061299135  0.7080311939852422  0.2409084887138704
  0.2059573855957666  0.0357761816874671  0.2416804212861194
  0.5437896991195075  0.0355437706176147  0.2483005384906036
  0.8671993006992480  0.0421289915412970  0.2432631122821078
  0.2088708222292510  0.3845157537096782  0.5918427202412886
  0.5413299394518418  0.3787923166260256  0.5856556993536657
  0.8717873030798629  0.3907755125152903  0.5845190702720728
  0.2226433418484461  0.7105000681084164  0.5890441017109751
  0.5531302367046393  0.7176860875909057  0.5995859285183585
  0.8719382328514982  0.7056882269005342  0.5816318930153201
  0.2008094089722761  0.0381767011160221  0.5813739445890462
  0.5464939938597766  0.0421175658281854  0.5826603826699426
  0.8900847488239876  0.0400856955824693  0.5863154289767039
  0.1980075334619045  0.3647430897187789  0.9080405751371430
  0.5407728190399226  0.3634729371042980  0.9100802684756388
  0.8710237251286443  0.3770622890584434  0.9056202366061967
  0.2082288212812102  0.7201358313009720  0.9153959480378049
  0.5357003937832587  0.7075935096563271  0.9076408329374956
  0.8794445989544712  0.7154276886746160  0.9239325681072117
  0.2144534892335841  0.0430305847357175  0.9128497273567220
  0.5356702258363697  0.0419997533917567  0.9151074045744281
  0.8738985001735387  0.0392290108423197  0.9147520316356292
  0.0376405114609994  0.5439184294615416  0.2383340546251276
  0.3753167988345893  0.5548135075461005  0.2510878336967863
  0.7115436756689775  0.5343051258983920  0.2435733499108679
  0.0347049547369238  0.8669374716938094  0.2444912165653861
  0.3780846609453761  0.8714075608307184  0.2524809273286053
  0.7228314334706383  0.8784638684293213  0.2499697283131539
  0.0310492584246873  0.1982930847393192  0.2440598174666206
  0.3646033774537258  0.1930596648027461  0.2374116801423725
  0.7181972148842846  0.2045568769136139  0.2559997358518942
  0.0438436663871471  0.5357553088558333  0.5845220272129694
  0.3733801214890278  0.5561102112431655  0.5927219966529051
  0.7157714416539847  0.5567221629584367  0.5928402781497510
  0.0436652462693345  0.8855364734679512  0.5889848271940963
  0.3823630723917546  0.8683445077332550  0.5890077989437827
  0.7105430974162701  0.8791982977175721  0.5834982018973776
  0.0451237873039503  0.1981836840862385  0.5889143615502306
  0.3628732394054452  0.1994331230928950  0.5814564284943842
  0.7057347972390318  0.1952867593157208  0.5762472226456694
  0.0306456816458294  0.5466047008076274  0.9158950896244207
  0.3785526378821018  0.5411981572289548  0.9090757242950929
  0.6966451737196095  0.5369671811383441  0.9091072472124040
  0.0336903138763063  0.8748890069730137  0.9203518088733276
  0.3823790208378597  0.8687071790572745  0.9121081108222739
  0.7110312742753777  0.8690652044789218  0.9129713288777097
  0.0366115710309529  0.2018586425879079  0.9053217824247142
  0.3784794716908522  0.2046010657342521  0.9131623889144080
  0.7042530107248766  0.2027198197724545  0.9240384928740539

  0.00000000E+00  0.00000000E+00  0.00000000E+00
  0.00000000E+00  0.00000000E+00  0.00000000E+00
  0.00000000E+00  0.00000000E+00  0.00000000E+00
  0.00000000E+00  0.00000000E+00  0.00000000E+00
  0.00000000E+00  0.00000000E+00  0.00000000E+00
  0.00000000E+00  0.00000000E+00  0.00000000E+00
  0.00000000E+00  0.00000000E+00  0.00000000E+00
  0.00000000E+00  0.00000000E+00  0.00000000E+00
  0.00000000E+00  0.00000000E+00  0.00000000E+00
  0.00000000E+00  0.00000000E+00  0.00000000E+00
  0.00000000E+00  0.00000000E+00  0.00000000E+00
  0.00000000E+00  0.00000000E+00  0.00000000E+00
  0.00000000E+00  0.00000000E+00  0.00000000E+00
  0.00000000E+00  0.00000000E+00  0.00000000E+00
  0.00000000E+00  0.00000000E+00  0.00000000E+00
  0.00000000E+00  0.00000000E+00  0.00000000E+00
  0.00000000E+00  0.00000000E+00  0.00000000E+00
  0.00000000E+00  0.00000000E+00  0.00000000E+00
  0.00000000E+00  0.00000000E+00  0.00000000E+00
  0.00000000E+00  0.00000000E+00  0.00000000E+00
  0.00000000E+00  0.00000000E+00  0.00000000E+00
  0.00000000E+00  0.00000000E+00  0.00000000E+00
  0.00000000E+00  0.00000000E+00  0.00000000E+00
  0.00000000E+00  0.00000000E+00  0.00000000E+00
  0.00000000E+00  0.00000000E+00  0.00000000E+00
  0.00000000E+00  0.00000000E+00  0.00000000E+00
  0.00000000E+00  0.00000000E+00  0.00000000E+00
  0.00000000E+00  0.00000000E+00  0.00000000E+00
  0.00000000E+00  0.00000000E+00  0.00000000E+00
  0.00000000E+00  0.00000000E+00  0.00000000E+00
  0.00000000E+00  0.00000000E+00  0.00000000E+00
  0.00000000E+00  0.00000000E+00  0.00000000E+00
  0.00000000E+00  0.00000000E+00  0.00000000E+00
  0.00000000E+00  0.00000000E+00  0.00000000E+00
  0.00000000E+00  0.00000000E+00  0.00000000E+00
  0.00000000E+00  0.00000000E+00  0.00000000E+00
  0.00000000E+00  0.00000000E+00  0.00000000E+00
  0.00000000E+00  0.00000000E+00  0.00000000E+00
  0.00000000E+00  0.00000000E+00  0.00000000E+00
  0.00000000E+00  0.00000000E+00  0.00000000E+00
  0.00000000E+00  0.00000000E+00  0.00000000E+00
  0.00000000E+00  0.00000000E+00  0.00000000E+00
  0.00000000E+00  0.00000000E+00  0.00000000E+00
  0.00000000E+00  0.00000000E+00  0.00000000E+00
  0.00000000E+00  0.00000000E+00  0.00000000E+00
  0.00000000E+00  0.00000000E+00  0.00000000E+00
  0.00000000E+00  0.00000000E+00  0.00000000E+00
  0.00000000E+00  0.00000000E+00  0.00000000E+00
  0.00000000E+00  0.00000000E+00  0.00000000E+00
  0.00000000E+00  0.00000000E+00  0.00000000E+00
  0.00000000E+00  0.00000000E+00  0.00000000E+00
  0.00000000E+00  0.00000000E+00  0.00000000E+00
  0.00000000E+00  0.00000000E+00  0.00000000E+00
  0.00000000E+00  0.00000000E+00  0.00000000E+00
  0.00000000E+00  0.00000000E+00  0.00000000E+00
  0.00000000E+00  0.00000000E+00  0.00000000E+00
  0.00000000E+00  0.00000000E+00  0.00000000E+00
  0.00000000E+00  0.00000000E+00  0.00000000E+00
  0.00000000E+00  0.00000000E+00  0.00000000E+00
  0.00000000E+00  0.00000000E+00  0.00000000E+00
  0.00000000E+00  0.00000000E+00  0.00000000E+00
  0.00000000E+00  0.00000000E+00  0.00000000E+00
  0.00000000E+00  0.00000000E+00  0.00000000E+00
  0.00000000E+00  0.00000000E+00  0.00000000E+00
  0.00000000E+00  0.00000000E+00  0.00000000E+00
  0.00000000E+00  0.00000000E+00  0.00000000E+00
  0.00000000E+00  0.00000000E+00  0.00000000E+00
  0.00000000E+00  0.00000000E+00  0.00000000E+00
  0.00000000E+00  0.00000000E+00  0.00000000E+00
  0.00000000E+00  0.00000000E+00  0.00000000E+00
  0.00000000E+00  0.00000000E+00  0.00000000E+00
  0.00000000E+00  0.00000000E+00  0.00000000E+00
  0.00000000E+00  0.00000000E+00  0.00000000E+00
  0.00000000E+00  0.00000000E+00  0.00000000E+00
  0.00000000E+00  0.00000000E+00  0.00000000E+00
  0.00000000E+00  0.00000000E+00  0.00000000E+00
  0.00000000E+00  0.00000000E+00  0.00000000E+00
  0.00000000E+00  0.00000000E+00  0.00000000E+00
  0.00000000E+00  0.00000000E+00  0.00000000E+00
  0.00000000E+00  0.00000000E+00  0.00000000E+00
  0.00000000E+00  0.00000000E+00  0.00000000E+00
  0.00000000E+00  0.00000000E+00  0.00000000E+00
  0.00000000E+00  0.00000000E+00  0.00000000E+00
  0.00000000E+00  0.00000000E+00  0.00000000E+00
  0.00000000E+00  0.00000000E+00  0.00000000E+00
  0.00000000E+00  0.00000000E+00  0.00000000E+00
  0.00000000E+00  0.00000000E+00  0.00000000E+00
  0.00000000E+00  0.00000000E+00  0.00000000E+00
  0.00000000E+00  0.00000000E+00  0.00000000E+00
  0.00000000E+00  0.00000000E+00  0.00000000E+00
  0.00000000E+00  0.00000000E+00  0.00000000E+00
  0.00000000E+00  0.00000000E+00  0.00000000E+00
  0.00000000E+00  0.00000000E+00  0.00000000E+00
  0.00000000E+00  0.00000000E+00  0.00000000E+00
  0.00000000E+00  0.00000000E+00  0.00000000E+00
  0.00000000E+00  0.00000000E+00  0.00000000E+00
  0.00000000E+00  0.00000000E+00  0.00000000E+00
  0.00000000E+00  0.00000000E+00  0.00000000E+00
  0.00000000E+00  0.00000000E+00  0.00000000E+00
  0.00000000E+00  0.00000000E+00  0.00000000E+00
  0.00000000E+00  0.00000000E+00  0.00000000E+00
  0.00000000E+00  0.00000000E+00  0.00000000E+00
  0.00000000E+00  0.00000000E+00  0.00000000E+00
  0.00000000E+00  0.00000000E+00  0.00000000E+00
  0.00000000E+00  0.00000000E+00  0.00000000E+00
  0.00000000E+00  0.00000000E+00  0.00000000E+00
  0.00000000E+00  0.00000000E+00  0.00000000E+00
  0.00000000E+00  0.00000000E+00  0.00000000E+00
  0.00000000E+00  0.00000000E+00  0.00000000E+00
  0.00000000E+00  0.00000000E+00  0.00000000E+00
  0.00000000E+00  0.00000000E+00  0.00000000E+00
  0.00000000E+00  0.00000000E+00  0.00000000E+00
  0.00000000E+00  0.00000000E+00  0.00000000E+00
  0.00000000E+00  0.00000000E+00  0.00000000E+00
  0.00000000E+00  0.00000000E+00  0.00000000E+00
  0.00000000E+00  0.00000000E+00  0.00000000E+00
  0.00000000E+00  0.00000000E+00  0.00000000E+00
  0.00000000E+00  0.00000000E+00  0.00000000E+00
  0.00000000E+00  0.00000000E+00  0.00000000E+00
  0.00000000E+00  0.00000000E+00  0.00000000E+00
  0.00000000E+00  0.00000000E+00  0.00000000E+00
  0.00000000E+00  0.00000000E+00  0.00000000E+00
  0.00000000E+00  0.00000000E+00  0.00000000E+00
  0.00000000E+00  0.00000000E+00  0.00000000E+00
  0.00000000E+00  0.00000000E+00  0.00000000E+00
  0.00000000E+00  0.00000000E+00  0.00000000E+00
  0.00000000E+00  0.00000000E+00  0.00000000E+00
  0.00000000E+00  0.00000000E+00  0.00000000E+00
  0.00000000E+00  0.00000000E+00  0.00000000E+00
  0.00000000E+00  0.00000000E+00  0.00000000E+00
  0.00000000E+00  0.00000000E+00  0.00000000E+00
  0.00000000E+00  0.00000000E+00  0.00000000E+00
  0.00000000E+00  0.00000000E+00  0.00000000E+00
  0.00000000E+00  0.00000000E+00  0.00000000E+00
  0.00000000E+00  0.00000000E+00  0.00000000E+00
  0.00000000E+00  0.00000000E+00  0.00000000E+00
  0.00000000E+00  0.00000000E+00  0.00000000E+00
  0.00000000E+00  0.00000000E+00  0.00000000E+00
  0.00000000E+00  0.00000000E+00  0.00000000E+00
  0.00000000E+00  0.00000000E+00  0.00000000E+00
  0.00000000E+00  0.00000000E+00  0.00000000E+00
  0.00000000E+00  0.00000000E+00  0.00000000E+00
  0.00000000E+00  0.00000000E+00  0.00000000E+00
  0.00000000E+00  0.00000000E+00  0.00000000E+00
  0.00000000E+00  0.00000000E+00  0.00000000E+00
  0.00000000E+00  0.00000000E+00  0.00000000E+00
  0.00000000E+00  0.00000000E+00  0.00000000E+00
  0.00000000E+00  0.00000000E+00  0.00000000E+00
  0.00000000E+00  0.00000000E+00  0.00000000E+00
  0.00000000E+00  0.00000000E+00  0.00000000E+00
  0.00000000E+00  0.00000000E+00  0.00000000E+00
  0.00000000E+00  0.00000000E+00  0.00000000E+00
  0.00000000E+00  0.00000000E+00  0.00000000E+00
  0.00000000E+00  0.00000000E+00  0.00000000E+00
  0.00000000E+00  0.00000000E+00  0.00000000E+00
  0.00000000E+00  0.00000000E+00  0.00000000E+00
  0.00000000E+00  0.00000000E+00  0.00000000E+00
  0.00000000E+00  0.00000000E+00  0.00000000E+00
  0.00000000E+00  0.00000000E+00  0.00000000E+00
  0.00000000E+00  0.00000000E+00  0.00000000E+00
  0.00000000E+00  0.00000000E+00  0.00000000E+00
  0.00000000E+00  0.00000000E+00  0.00000000E+00
  0.00000000E+00  0.00000000E+00  0.00000000E+00
  0.00000000E+00  0.00000000E+00  0.00000000E+00
  0.00000000E+00  0.00000000E+00  0.00000000E+00
  0.00000000E+00  0.00000000E+00  0.00000000E+00
  0.00000000E+00  0.00000000E+00  0.00000000E+00
  0.00000000E+00  0.00000000E+00  0.00000000E+00
  0.00000000E+00  0.00000000E+00  0.00000000E+00
  0.00000000E+00  0.00000000E+00  0.00000000E+00
  0.00000000E+00  0.00000000E+00  0.00000000E+00
  0.00000000E+00  0.00000000E+00  0.00000000E+00
  0.00000000E+00  0.00000000E+00  0.00000000E+00
  0.00000000E+00  0.00000000E+00  0.00000000E+00
  0.00000000E+00  0.00000000E+00  0.00000000E+00
  0.00000000E+00  0.00000000E+00  0.00000000E+00
  0.00000000E+00  0.00000000E+00  0.00000000E+00
  0.00000000E+00  0.00000000E+00  0.00000000E+00
  0.00000000E+00  0.00000000E+00  0.00000000E+00
  0.00000000E+00  0.00000000E+00  0.00000000E+00
  0.00000000E+00  0.00000000E+00  0.00000000E+00
  0.00000000E+00  0.00000000E+00  0.00000000E+00
  0.00000000E+00  0.00000000E+00  0.00000000E+00
  0.00000000E+00  0.00000000E+00  0.00000000E+00
  0.00000000E+00  0.00000000E+00  0.00000000E+00
  0.00000000E+00  0.00000000E+00  0.00000000E+00
  0.00000000E+00  0.00000000E+00  0.00000000E+00
  0.00000000E+00  0.00000000E+00  0.00000000E+00
  0.00000000E+00  0.00000000E+00  0.00000000E+00
  0.00000000E+00  0.00000000E+00  0.00000000E+00
  0.00000000E+00  0.00000000E+00  0.00000000E+00
  0.00000000E+00  0.00000000E+00  0.00000000E+00
  0.00000000E+00  0.00000000E+00  0.00000000E+00
  0.00000000E+00  0.00000000E+00  0.00000000E+00
  0.00000000E+00  0.00000000E+00  0.00000000E+00
  0.00000000E+00  0.00000000E+00  0.00000000E+00
  0.00000000E+00  0.00000000E+00  0.00000000E+00
  0.00000000E+00  0.00000000E+00  0.00000000E+00
  0.00000000E+00  0.00000000E+00  0.00000000E+00
  0.00000000E+00  0.00000000E+00  0.00000000E+00
  0.00000000E+00  0.00000000E+00  0.00000000E+00
  0.00000000E+00  0.00000000E+00  0.00000000E+00
  0.00000000E+00  0.00000000E+00  0.00000000E+00
  0.00000000E+00  0.00000000E+00  0.00000000E+00
  0.00000000E+00  0.00000000E+00  0.00000000E+00
  0.00000000E+00  0.00000000E+00  0.00000000E+00
  0.00000000E+00  0.00000000E+00  0.00000000E+00
  0.00000000E+00  0.00000000E+00  0.00000000E+00
  0.00000000E+00  0.00000000E+00  0.00000000E+00
  0.00000000E+00  0.00000000E+00  0.00000000E+00
  0.00000000E+00  0.00000000E+00  0.00000000E+00
  0.00000000E+00  0.00000000E+00  0.00000000E+00
  0.00000000E+00  0.00000000E+00  0.00000000E+00
  0.00000000E+00  0.00000000E+00  0.00000000E+00
  0.00000000E+00  0.00000000E+00  0.00000000E+00
  0.00000000E+00  0.00000000E+00  0.00000000E+00
