Ga54 Cu54 Se108                         
   1.0000000000000000     
    15.5420850591862258    0.0000000089888768   -6.9866592488565660
    -3.1407238950230858   15.2214409307277201   -6.9866592488844566
    -0.0027480443687159   -0.0033729519288483   20.7742059989382355
   Ga   Cu   Se
    54    54   108
Direct
  0.1666669999999968  0.5000000000000000  0.0000000000000000
  0.5000000000000000  0.5000000000000000  0.0000000000000000
  0.8333330000000032  0.5000000000000000  0.0000000000000000
  0.1666669999999968  0.8333330000000032  0.0000000000000000
  0.5000000000000000  0.8333330000000032  0.0000000000000000
  0.8333330000000032  0.8333330000000032  0.0000000000000000
  0.1666669999999968  0.1666669999999968  0.0000000000000000
  0.5000000000000000  0.1666669999999968  0.0000000000000000
  0.8333330000000032  0.1666669999999968  0.0000000000000000
  0.1666669999999968  0.5000000000000000  0.3333330000000032
  0.5000000000000000  0.5000000000000000  0.3333330000000032
  0.8333330000000032  0.5000000000000000  0.3333330000000032
  0.1666669999999968  0.8333330000000032  0.3333330000000032
  0.5000000000000000  0.8333330000000032  0.3333330000000032
  0.8333330000000032  0.8333330000000032  0.3333330000000032
  0.1666669999999968  0.1666669999999968  0.3333330000000032
  0.5000000000000000  0.1666669999999968  0.3333330000000032
  0.8333330000000032  0.1666669999999968  0.3333330000000032
  0.1666669999999968  0.5000000000000000  0.6666669999999968
  0.5000000000000000  0.5000000000000000  0.6666669999999968
  0.8333330000000032  0.5000000000000000  0.6666669999999968
  0.1666669999999968  0.8333330000000032  0.6666669999999968
  0.5000000000000000  0.8333330000000032  0.6666669999999968
  0.8333330000000032  0.8333330000000032  0.6666669999999968
  0.1666669999999968  0.1666669999999968  0.6666669999999968
  0.5000000000000000  0.1666669999999968  0.6666669999999968
  0.8333330000000032  0.1666669999999968  0.6666669999999968
  0.2500000000000000  0.4166669999999968  0.1666669999999968
  0.5833330000000032  0.4166669999999968  0.1666669999999968
  0.9166669999999968  0.4166669999999968  0.1666669999999968
  0.2500000000000000  0.7500000000000000  0.1666669999999968
  0.5833330000000032  0.7500000000000000  0.1666669999999968
  0.9166669999999968  0.7500000000000000  0.1666669999999968
  0.2500000000000000  0.0833330000000032  0.1666669999999968
  0.5833330000000032  0.0833330000000032  0.1666669999999968
  0.9166669999999968  0.0833330000000032  0.1666669999999968
  0.2500000000000000  0.4166669999999968  0.5000000000000000
  0.5833330000000032  0.4166669999999968  0.5000000000000000
  0.9166669999999968  0.4166669999999968  0.5000000000000000
  0.2500000000000000  0.7500000000000000  0.5000000000000000
  0.5833330000000032  0.7500000000000000  0.5000000000000000
  0.9166669999999968  0.7500000000000000  0.5000000000000000
  0.2500000000000000  0.0833330000000032  0.5000000000000000
  0.5833330000000032  0.0833330000000032  0.5000000000000000
  0.9166669999999968  0.0833330000000032  0.5000000000000000
  0.2500000000000000  0.4166669999999968  0.8333330000000032
  0.5833330000000032  0.4166669999999968  0.8333330000000032
  0.9166669999999968  0.4166669999999968  0.8333330000000032
  0.2500000000000000  0.7500000000000000  0.8333330000000032
  0.5833330000000032  0.7500000000000000  0.8333330000000032
  0.9166669999999968  0.7500000000000000  0.8333330000000032
  0.2500000000000000  0.0833330000000032  0.8333330000000032
  0.5833330000000032  0.0833330000000032  0.8333330000000032
  0.9166669999999968  0.0833330000000032  0.8333330000000032
  0.0000000000000000  0.3333330000000032  0.0000000000000000
  0.3333330000000032  0.3333330000000032  0.0000000000000000
  0.6666669999999968  0.3333330000000032  0.0000000000000000
  0.0000000000000000  0.6666669999999968  0.0000000000000000
  0.3333330000000032  0.6666669999999968  0.0000000000000000
  0.6666669999999968  0.6666669999999968  0.0000000000000000
  0.0000000000000000  0.0000000000000000  0.0000000000000000
  0.3333330000000032  0.0000000000000000  0.0000000000000000
  0.6666669999999968  0.0000000000000000  0.0000000000000000
  0.0000000000000000  0.3333330000000032  0.3333330000000032
  0.3333330000000032  0.3333330000000032  0.3333330000000032
  0.6666669999999968  0.3333330000000032  0.3333330000000032
  0.0000000000000000  0.6666669999999968  0.3333330000000032
  0.3333330000000032  0.6666669999999968  0.3333330000000032
  0.6666669999999968  0.6666669999999968  0.3333330000000032
  0.0000000000000000  0.0000000000000000  0.3333330000000032
  0.3333330000000032  0.0000000000000000  0.3333330000000032
  0.6666669999999968  0.0000000000000000  0.3333330000000032
  0.0000000000000000  0.3333330000000032  0.6666669999999968
  0.3333330000000032  0.3333330000000032  0.6666669999999968
  0.6666669999999968  0.3333330000000032  0.6666669999999968
  0.0000000000000000  0.6666669999999968  0.6666669999999968
  0.3333330000000032  0.6666669999999968  0.6666669999999968
  0.6666669999999968  0.6666669999999968  0.6666669999999968
  0.0000000000000000  0.0000000000000000  0.6666669999999968
  0.3333330000000032  0.0000000000000000  0.6666669999999968
  0.6666669999999968  0.0000000000000000  0.6666669999999968
  0.0833330000000032  0.5833330000000032  0.1666669999999968
  0.4166669999999968  0.5833330000000032  0.1666669999999968
  0.7500000000000000  0.5833330000000032  0.1666669999999968
  0.0833330000000032  0.9166669999999968  0.1666669999999968
  0.4166669999999968  0.9166669999999968  0.1666669999999968
  0.7500000000000000  0.9166669999999968  0.1666669999999968
  0.0833330000000032  0.2500000000000000  0.1666669999999968
  0.4166669999999968  0.2500000000000000  0.1666669999999968
  0.7500000000000000  0.2500000000000000  0.1666669999999968
  0.0833330000000032  0.5833330000000032  0.5000000000000000
  0.4166669999999968  0.5833330000000032  0.5000000000000000
  0.7500000000000000  0.5833330000000032  0.5000000000000000
  0.0833330000000032  0.9166669999999968  0.5000000000000000
  0.4166669999999968  0.9166669999999968  0.5000000000000000
  0.7500000000000000  0.9166669999999968  0.5000000000000000
  0.0833330000000032  0.2500000000000000  0.5000000000000000
  0.4166669999999968  0.2500000000000000  0.5000000000000000
  0.7500000000000000  0.2500000000000000  0.5000000000000000
  0.0833330000000032  0.5833330000000032  0.8333330000000032
  0.4166669999999968  0.5833330000000032  0.8333330000000032
  0.7500000000000000  0.5833330000000032  0.8333330000000032
  0.0833330000000032  0.9166669999999968  0.8333330000000032
  0.4166669999999968  0.9166669999999968  0.8333330000000032
  0.7500000000000000  0.9166669999999968  0.8333330000000032
  0.0833330000000032  0.2500000000000000  0.8333330000000032
  0.4166669999999968  0.2500000000000000  0.8333330000000032
  0.7500000000000000  0.2500000000000000  0.8333330000000032
  0.1228847818592698  0.4583330000000032  0.0833329999999961
  0.4562187818592705  0.4583330000000032  0.0833329999999961
  0.7895517818592737  0.4583330000000032  0.0833329999999961
  0.1228847818592698  0.7916669999999968  0.0833329999999961
  0.4562187818592705  0.7916669999999968  0.0833329999999961
  0.7895517818592737  0.7916669999999968  0.0833329999999961
  0.1228847818592698  0.1250000000000000  0.0833329999999961
  0.4562187818592705  0.1250000000000000  0.0833329999999961
  0.7895517818592737  0.1250000000000000  0.0833329999999961
  0.1228847818592698  0.4583330000000032  0.4166669999999897
  0.4562187818592705  0.4583330000000032  0.4166669999999897
  0.7895517818592737  0.4583330000000032  0.4166669999999897
  0.1228847818592698  0.7916669999999968  0.4166669999999897
  0.4562187818592705  0.7916669999999968  0.4166669999999897
  0.7895517818592737  0.7916669999999968  0.4166669999999897
  0.1228847818592698  0.1250000000000000  0.4166669999999897
  0.4562187818592705  0.1250000000000000  0.4166669999999897
  0.7895517818592737  0.1250000000000000  0.4166669999999897
  0.1228847818592698  0.4583330000000032  0.7499999999999929
  0.4562187818592705  0.4583330000000032  0.7499999999999929
  0.7895517818592737  0.4583330000000032  0.7499999999999929
  0.1228847818592698  0.7916669999999968  0.7499999999999929
  0.4562187818592705  0.7916669999999968  0.7499999999999929
  0.7895517818592737  0.7916669999999968  0.7499999999999929
  0.1228847818592698  0.1250000000000000  0.7499999999999929
  0.4562187818592705  0.1250000000000000  0.7499999999999929
  0.7895517818592737  0.1250000000000000  0.7499999999999929
  0.2937812181407295  0.6250000000000000  0.0833330000000103
  0.6271152181407302  0.6250000000000000  0.0833330000000103
  0.9604482181407263  0.6250000000000000  0.0833330000000103
  0.2937812181407295  0.9583330000000032  0.0833330000000103
  0.6271152181407302  0.9583330000000032  0.0833330000000103
  0.9604482181407263  0.9583330000000032  0.0833330000000103
  0.2937812181407295  0.2916669999999968  0.0833330000000103
  0.6271152181407302  0.2916669999999968  0.0833330000000103
  0.9604482181407263  0.2916669999999968  0.0833330000000103
  0.2937812181407295  0.6250000000000000  0.4166670000000039
  0.6271152181407302  0.6250000000000000  0.4166670000000039
  0.9604482181407263  0.6250000000000000  0.4166670000000039
  0.2937812181407295  0.9583330000000032  0.4166670000000039
  0.6271152181407302  0.9583330000000032  0.4166670000000039
  0.9604482181407263  0.9583330000000032  0.4166670000000039
  0.2937812181407295  0.2916669999999968  0.4166670000000039
  0.6271152181407302  0.2916669999999968  0.4166670000000039
  0.9604482181407263  0.2916669999999968  0.4166670000000039
  0.2937812181407295  0.6250000000000000  0.7500000000000071
  0.6271152181407302  0.6250000000000000  0.7500000000000071
  0.9604482181407263  0.6250000000000000  0.7500000000000071
  0.2937812181407295  0.9583330000000032  0.7500000000000071
  0.6271152181407302  0.9583330000000032  0.7500000000000071
  0.9604482181407263  0.9583330000000032  0.7500000000000071
  0.2937812181407295  0.2916669999999968  0.7500000000000071
  0.6271152181407302  0.2916669999999968  0.7500000000000071
  0.9604482181407263  0.2916669999999968  0.7500000000000071
  0.2083330000000032  0.3728847818592698  0.2499999999999929
  0.5416669999999968  0.3728847818592698  0.2499999999999929
  0.8750000000000000  0.3728847818592698  0.2499999999999929
  0.2083330000000032  0.7062187818592705  0.2499999999999929
  0.5416669999999968  0.7062187818592705  0.2499999999999929
  0.8750000000000000  0.7062187818592705  0.2499999999999929
  0.2083330000000032  0.0395517818592737  0.2499999999999929
  0.5416669999999968  0.0395517818592737  0.2499999999999929
  0.8750000000000000  0.0395517818592737  0.2499999999999929
  0.2083330000000032  0.3728847818592698  0.5833329999999961
  0.5416669999999968  0.3728847818592698  0.5833329999999961
  0.8750000000000000  0.3728847818592698  0.5833329999999961
  0.2083330000000032  0.7062187818592705  0.5833329999999961
  0.5416669999999968  0.7062187818592705  0.5833329999999961
  0.8750000000000000  0.7062187818592705  0.5833329999999961
  0.2083330000000032  0.0395517818592737  0.5833329999999961
  0.5416669999999968  0.0395517818592737  0.5833329999999961
  0.8750000000000000  0.0395517818592737  0.5833329999999961
  0.2083330000000032  0.3728847818592698  0.9166669999999897
  0.5416669999999968  0.3728847818592698  0.9166669999999897
  0.8750000000000000  0.3728847818592698  0.9166669999999897
  0.2083330000000032  0.7062187818592705  0.9166669999999897
  0.5416669999999968  0.7062187818592705  0.9166669999999897
  0.8750000000000000  0.7062187818592705  0.9166669999999897
  0.2083330000000032  0.0395517818592737  0.9166669999999897
  0.5416669999999968  0.0395517818592737  0.9166669999999897
  0.8750000000000000  0.0395517818592737  0.9166669999999897
  0.0416669999999968  0.5437812181407295  0.2500000000000071
  0.3750000000000000  0.5437812181407295  0.2500000000000071
  0.7083330000000032  0.5437812181407295  0.2500000000000071
  0.0416669999999968  0.8771152181407302  0.2500000000000071
  0.3750000000000000  0.8771152181407302  0.2500000000000071
  0.7083330000000032  0.8771152181407302  0.2500000000000071
  0.0416669999999968  0.2104482181407263  0.2500000000000071
  0.3750000000000000  0.2104482181407263  0.2500000000000071
  0.7083330000000032  0.2104482181407263  0.2500000000000071
  0.0416669999999968  0.5437812181407295  0.5833330000000103
  0.3750000000000000  0.5437812181407295  0.5833330000000103
  0.7083330000000032  0.5437812181407295  0.5833330000000103
  0.0416669999999968  0.8771152181407302  0.5833330000000103
  0.3750000000000000  0.8771152181407302  0.5833330000000103
  0.7083330000000032  0.8771152181407302  0.5833330000000103
  0.0416669999999968  0.2104482181407263  0.5833330000000103
  0.3750000000000000  0.2104482181407263  0.5833330000000103
  0.7083330000000032  0.2104482181407263  0.5833330000000103
  0.0416669999999968  0.5437812181407295  0.9166670000000039
  0.3750000000000000  0.5437812181407295  0.9166670000000039
  0.7083330000000032  0.5437812181407295  0.9166670000000039
  0.0416669999999968  0.8771152181407302  0.9166670000000039
  0.3750000000000000  0.8771152181407302  0.9166670000000039
  0.7083330000000032  0.8771152181407302  0.9166670000000039
  0.0416669999999968  0.2104482181407263  0.9166670000000039
  0.3750000000000000  0.2104482181407263  0.9166670000000039
  0.7083330000000032  0.2104482181407263  0.9166670000000039

  0.00000000E+00  0.00000000E+00  0.00000000E+00
  0.00000000E+00  0.00000000E+00  0.00000000E+00
  0.00000000E+00  0.00000000E+00  0.00000000E+00
  0.00000000E+00  0.00000000E+00  0.00000000E+00
  0.00000000E+00  0.00000000E+00  0.00000000E+00
  0.00000000E+00  0.00000000E+00  0.00000000E+00
  0.00000000E+00  0.00000000E+00  0.00000000E+00
  0.00000000E+00  0.00000000E+00  0.00000000E+00
  0.00000000E+00  0.00000000E+00  0.00000000E+00
  0.00000000E+00  0.00000000E+00  0.00000000E+00
  0.00000000E+00  0.00000000E+00  0.00000000E+00
  0.00000000E+00  0.00000000E+00  0.00000000E+00
  0.00000000E+00  0.00000000E+00  0.00000000E+00
  0.00000000E+00  0.00000000E+00  0.00000000E+00
  0.00000000E+00  0.00000000E+00  0.00000000E+00
  0.00000000E+00  0.00000000E+00  0.00000000E+00
  0.00000000E+00  0.00000000E+00  0.00000000E+00
  0.00000000E+00  0.00000000E+00  0.00000000E+00
  0.00000000E+00  0.00000000E+00  0.00000000E+00
  0.00000000E+00  0.00000000E+00  0.00000000E+00
  0.00000000E+00  0.00000000E+00  0.00000000E+00
  0.00000000E+00  0.00000000E+00  0.00000000E+00
  0.00000000E+00  0.00000000E+00  0.00000000E+00
  0.00000000E+00  0.00000000E+00  0.00000000E+00
  0.00000000E+00  0.00000000E+00  0.00000000E+00
  0.00000000E+00  0.00000000E+00  0.00000000E+00
  0.00000000E+00  0.00000000E+00  0.00000000E+00
  0.00000000E+00  0.00000000E+00  0.00000000E+00
  0.00000000E+00  0.00000000E+00  0.00000000E+00
  0.00000000E+00  0.00000000E+00  0.00000000E+00
  0.00000000E+00  0.00000000E+00  0.00000000E+00
  0.00000000E+00  0.00000000E+00  0.00000000E+00
  0.00000000E+00  0.00000000E+00  0.00000000E+00
  0.00000000E+00  0.00000000E+00  0.00000000E+00
  0.00000000E+00  0.00000000E+00  0.00000000E+00
  0.00000000E+00  0.00000000E+00  0.00000000E+00
  0.00000000E+00  0.00000000E+00  0.00000000E+00
  0.00000000E+00  0.00000000E+00  0.00000000E+00
  0.00000000E+00  0.00000000E+00  0.00000000E+00
  0.00000000E+00  0.00000000E+00  0.00000000E+00
  0.00000000E+00  0.00000000E+00  0.00000000E+00
  0.00000000E+00  0.00000000E+00  0.00000000E+00
  0.00000000E+00  0.00000000E+00  0.00000000E+00
  0.00000000E+00  0.00000000E+00  0.00000000E+00
  0.00000000E+00  0.00000000E+00  0.00000000E+00
  0.00000000E+00  0.00000000E+00  0.00000000E+00
  0.00000000E+00  0.00000000E+00  0.00000000E+00
  0.00000000E+00  0.00000000E+00  0.00000000E+00
  0.00000000E+00  0.00000000E+00  0.00000000E+00
  0.00000000E+00  0.00000000E+00  0.00000000E+00
  0.00000000E+00  0.00000000E+00  0.00000000E+00
  0.00000000E+00  0.00000000E+00  0.00000000E+00
  0.00000000E+00  0.00000000E+00  0.00000000E+00
  0.00000000E+00  0.00000000E+00  0.00000000E+00
  0.00000000E+00  0.00000000E+00  0.00000000E+00
  0.00000000E+00  0.00000000E+00  0.00000000E+00
  0.00000000E+00  0.00000000E+00  0.00000000E+00
  0.00000000E+00  0.00000000E+00  0.00000000E+00
  0.00000000E+00  0.00000000E+00  0.00000000E+00
  0.00000000E+00  0.00000000E+00  0.00000000E+00
  0.00000000E+00  0.00000000E+00  0.00000000E+00
  0.00000000E+00  0.00000000E+00  0.00000000E+00
  0.00000000E+00  0.00000000E+00  0.00000000E+00
  0.00000000E+00  0.00000000E+00  0.00000000E+00
  0.00000000E+00  0.00000000E+00  0.00000000E+00
  0.00000000E+00  0.00000000E+00  0.00000000E+00
  0.00000000E+00  0.00000000E+00  0.00000000E+00
  0.00000000E+00  0.00000000E+00  0.00000000E+00
  0.00000000E+00  0.00000000E+00  0.00000000E+00
  0.00000000E+00  0.00000000E+00  0.00000000E+00
  0.00000000E+00  0.00000000E+00  0.00000000E+00
  0.00000000E+00  0.00000000E+00  0.00000000E+00
  0.00000000E+00  0.00000000E+00  0.00000000E+00
  0.00000000E+00  0.00000000E+00  0.00000000E+00
  0.00000000E+00  0.00000000E+00  0.00000000E+00
  0.00000000E+00  0.00000000E+00  0.00000000E+00
  0.00000000E+00  0.00000000E+00  0.00000000E+00
  0.00000000E+00  0.00000000E+00  0.00000000E+00
  0.00000000E+00  0.00000000E+00  0.00000000E+00
  0.00000000E+00  0.00000000E+00  0.00000000E+00
  0.00000000E+00  0.00000000E+00  0.00000000E+00
  0.00000000E+00  0.00000000E+00  0.00000000E+00
  0.00000000E+00  0.00000000E+00  0.00000000E+00
  0.00000000E+00  0.00000000E+00  0.00000000E+00
  0.00000000E+00  0.00000000E+00  0.00000000E+00
  0.00000000E+00  0.00000000E+00  0.00000000E+00
  0.00000000E+00  0.00000000E+00  0.00000000E+00
  0.00000000E+00  0.00000000E+00  0.00000000E+00
  0.00000000E+00  0.00000000E+00  0.00000000E+00
  0.00000000E+00  0.00000000E+00  0.00000000E+00
  0.00000000E+00  0.00000000E+00  0.00000000E+00
  0.00000000E+00  0.00000000E+00  0.00000000E+00
  0.00000000E+00  0.00000000E+00  0.00000000E+00
  0.00000000E+00  0.00000000E+00  0.00000000E+00
  0.00000000E+00  0.00000000E+00  0.00000000E+00
  0.00000000E+00  0.00000000E+00  0.00000000E+00
  0.00000000E+00  0.00000000E+00  0.00000000E+00
  0.00000000E+00  0.00000000E+00  0.00000000E+00
  0.00000000E+00  0.00000000E+00  0.00000000E+00
  0.00000000E+00  0.00000000E+00  0.00000000E+00
  0.00000000E+00  0.00000000E+00  0.00000000E+00
  0.00000000E+00  0.00000000E+00  0.00000000E+00
  0.00000000E+00  0.00000000E+00  0.00000000E+00
  0.00000000E+00  0.00000000E+00  0.00000000E+00
  0.00000000E+00  0.00000000E+00  0.00000000E+00
  0.00000000E+00  0.00000000E+00  0.00000000E+00
  0.00000000E+00  0.00000000E+00  0.00000000E+00
  0.00000000E+00  0.00000000E+00  0.00000000E+00
  0.00000000E+00  0.00000000E+00  0.00000000E+00
  0.00000000E+00  0.00000000E+00  0.00000000E+00
  0.00000000E+00  0.00000000E+00  0.00000000E+00
  0.00000000E+00  0.00000000E+00  0.00000000E+00
  0.00000000E+00  0.00000000E+00  0.00000000E+00
  0.00000000E+00  0.00000000E+00  0.00000000E+00
  0.00000000E+00  0.00000000E+00  0.00000000E+00
  0.00000000E+00  0.00000000E+00  0.00000000E+00
  0.00000000E+00  0.00000000E+00  0.00000000E+00
  0.00000000E+00  0.00000000E+00  0.00000000E+00
  0.00000000E+00  0.00000000E+00  0.00000000E+00
  0.00000000E+00  0.00000000E+00  0.00000000E+00
  0.00000000E+00  0.00000000E+00  0.00000000E+00
  0.00000000E+00  0.00000000E+00  0.00000000E+00
  0.00000000E+00  0.00000000E+00  0.00000000E+00
  0.00000000E+00  0.00000000E+00  0.00000000E+00
  0.00000000E+00  0.00000000E+00  0.00000000E+00
  0.00000000E+00  0.00000000E+00  0.00000000E+00
  0.00000000E+00  0.00000000E+00  0.00000000E+00
  0.00000000E+00  0.00000000E+00  0.00000000E+00
  0.00000000E+00  0.00000000E+00  0.00000000E+00
  0.00000000E+00  0.00000000E+00  0.00000000E+00
  0.00000000E+00  0.00000000E+00  0.00000000E+00
  0.00000000E+00  0.00000000E+00  0.00000000E+00
  0.00000000E+00  0.00000000E+00  0.00000000E+00
  0.00000000E+00  0.00000000E+00  0.00000000E+00
  0.00000000E+00  0.00000000E+00  0.00000000E+00
  0.00000000E+00  0.00000000E+00  0.00000000E+00
  0.00000000E+00  0.00000000E+00  0.00000000E+00
  0.00000000E+00  0.00000000E+00  0.00000000E+00
  0.00000000E+00  0.00000000E+00  0.00000000E+00
  0.00000000E+00  0.00000000E+00  0.00000000E+00
  0.00000000E+00  0.00000000E+00  0.00000000E+00
  0.00000000E+00  0.00000000E+00  0.00000000E+00
  0.00000000E+00  0.00000000E+00  0.00000000E+00
  0.00000000E+00  0.00000000E+00  0.00000000E+00
  0.00000000E+00  0.00000000E+00  0.00000000E+00
  0.00000000E+00  0.00000000E+00  0.00000000E+00
  0.00000000E+00  0.00000000E+00  0.00000000E+00
  0.00000000E+00  0.00000000E+00  0.00000000E+00
  0.00000000E+00  0.00000000E+00  0.00000000E+00
  0.00000000E+00  0.00000000E+00  0.00000000E+00
  0.00000000E+00  0.00000000E+00  0.00000000E+00
  0.00000000E+00  0.00000000E+00  0.00000000E+00
  0.00000000E+00  0.00000000E+00  0.00000000E+00
  0.00000000E+00  0.00000000E+00  0.00000000E+00
  0.00000000E+00  0.00000000E+00  0.00000000E+00
  0.00000000E+00  0.00000000E+00  0.00000000E+00
  0.00000000E+00  0.00000000E+00  0.00000000E+00
  0.00000000E+00  0.00000000E+00  0.00000000E+00
  0.00000000E+00  0.00000000E+00  0.00000000E+00
  0.00000000E+00  0.00000000E+00  0.00000000E+00
  0.00000000E+00  0.00000000E+00  0.00000000E+00
  0.00000000E+00  0.00000000E+00  0.00000000E+00
  0.00000000E+00  0.00000000E+00  0.00000000E+00
  0.00000000E+00  0.00000000E+00  0.00000000E+00
  0.00000000E+00  0.00000000E+00  0.00000000E+00
  0.00000000E+00  0.00000000E+00  0.00000000E+00
  0.00000000E+00  0.00000000E+00  0.00000000E+00
  0.00000000E+00  0.00000000E+00  0.00000000E+00
  0.00000000E+00  0.00000000E+00  0.00000000E+00
  0.00000000E+00  0.00000000E+00  0.00000000E+00
  0.00000000E+00  0.00000000E+00  0.00000000E+00
  0.00000000E+00  0.00000000E+00  0.00000000E+00
  0.00000000E+00  0.00000000E+00  0.00000000E+00
  0.00000000E+00  0.00000000E+00  0.00000000E+00
  0.00000000E+00  0.00000000E+00  0.00000000E+00
  0.00000000E+00  0.00000000E+00  0.00000000E+00
  0.00000000E+00  0.00000000E+00  0.00000000E+00
  0.00000000E+00  0.00000000E+00  0.00000000E+00
  0.00000000E+00  0.00000000E+00  0.00000000E+00
  0.00000000E+00  0.00000000E+00  0.00000000E+00
  0.00000000E+00  0.00000000E+00  0.00000000E+00
  0.00000000E+00  0.00000000E+00  0.00000000E+00
  0.00000000E+00  0.00000000E+00  0.00000000E+00
  0.00000000E+00  0.00000000E+00  0.00000000E+00
  0.00000000E+00  0.00000000E+00  0.00000000E+00
  0.00000000E+00  0.00000000E+00  0.00000000E+00
  0.00000000E+00  0.00000000E+00  0.00000000E+00
  0.00000000E+00  0.00000000E+00  0.00000000E+00
  0.00000000E+00  0.00000000E+00  0.00000000E+00
  0.00000000E+00  0.00000000E+00  0.00000000E+00
  0.00000000E+00  0.00000000E+00  0.00000000E+00
  0.00000000E+00  0.00000000E+00  0.00000000E+00
  0.00000000E+00  0.00000000E+00  0.00000000E+00
  0.00000000E+00  0.00000000E+00  0.00000000E+00
  0.00000000E+00  0.00000000E+00  0.00000000E+00
  0.00000000E+00  0.00000000E+00  0.00000000E+00
  0.00000000E+00  0.00000000E+00  0.00000000E+00
  0.00000000E+00  0.00000000E+00  0.00000000E+00
  0.00000000E+00  0.00000000E+00  0.00000000E+00
  0.00000000E+00  0.00000000E+00  0.00000000E+00
  0.00000000E+00  0.00000000E+00  0.00000000E+00
  0.00000000E+00  0.00000000E+00  0.00000000E+00
  0.00000000E+00  0.00000000E+00  0.00000000E+00
  0.00000000E+00  0.00000000E+00  0.00000000E+00
  0.00000000E+00  0.00000000E+00  0.00000000E+00
  0.00000000E+00  0.00000000E+00  0.00000000E+00
  0.00000000E+00  0.00000000E+00  0.00000000E+00
  0.00000000E+00  0.00000000E+00  0.00000000E+00
  0.00000000E+00  0.00000000E+00  0.00000000E+00
  0.00000000E+00  0.00000000E+00  0.00000000E+00
  0.00000000E+00  0.00000000E+00  0.00000000E+00
  0.00000000E+00  0.00000000E+00  0.00000000E+00
  0.00000000E+00  0.00000000E+00  0.00000000E+00
  0.00000000E+00  0.00000000E+00  0.00000000E+00
  0.00000000E+00  0.00000000E+00  0.00000000E+00
  0.00000000E+00  0.00000000E+00  0.00000000E+00
