In12 Ga42 Cu42 Ag12 Se108               
   1.0000000000000000     
    15.8447678397410527    0.0035809411873309   -7.1513189832261581
    -3.2382721972172370   15.4859094689307248   -7.1445955230537406
     0.0072938079460263    0.0173618116184805   21.1346086138928939
   In   Ga   Cu   Ag   Se
    12    42    42    12   108
Direct
  0.4997202194103352  0.5008537653449707  0.9975027739879891
  0.1640469612643685  0.8329051687901625  0.9984793259557208
  0.4993632340277188  0.8329061652186738  0.9979701319578069
  0.1689869362133223  0.4979008320132365  0.3330415807441298
  0.1664371284741293  0.8347158716385792  0.3340719218481993
  0.8381285605717324  0.8400397513518385  0.3357143255023942
  0.1646044918065854  0.4996722772987710  0.6648772477228633
  0.8325728802848076  0.5020721117073705  0.6670753424990963
  0.5015137706187787  0.1680991171593504  0.6647523035356500
  0.5799637451625586  0.7569255317165826  0.1670740178792940
  0.2531167379295738  0.7506219267318244  0.5053021711123691
  0.5869610883267598  0.0801186142039114  0.8350755361990068
  0.1628634446899611  0.5016132756218497  0.9976186914781309
  0.8356948838067240  0.5022080239216464  0.9972117716464268
  0.8308156616967253  0.8329678153789573  0.9967047295824472
  0.1625116678521650  0.1627226536705493  0.9976628590894805
  0.4998583314808798  0.1618175101229582  0.0014400161967743
  0.8371630953035520  0.1643811478550461  0.0013820855238507
  0.4945161390171435  0.4949501090848756  0.3353891038859516
  0.8364415756857539  0.4963436321890313  0.3333559942679116
  0.4994508935631572  0.8391620971556719  0.3372629990113793
  0.1692341374045370  0.1679348500317417  0.3350873090261572
  0.4982297068737793  0.1669011852585882  0.3337266031690120
  0.8351637585572789  0.1651618813393938  0.3345667255464448
  0.5013906148428688  0.5002127748312901  0.6670207001951667
  0.1646409781972409  0.8327009079808789  0.6699357191525195
  0.5049374454045008  0.8313854778714287  0.6664774457521219
  0.8318811164182236  0.8336791822683551  0.6653442574308102
  0.1652960438427371  0.1693657045906534  0.6664250111754058
  0.8332236388505123  0.1659584901727129  0.6676301626147492
  0.2475281974823247  0.4106722752404366  0.1654206197925419
  0.5838843774584674  0.4094684525187091  0.1699885623971085
  0.9184461527916667  0.4156180369051299  0.1644646223428765
  0.2503881733229534  0.7480738661913193  0.1659030673094293
  0.9154885918073461  0.7501574453345512  0.1637642737259739
  0.2502902060598657  0.0876892561841203  0.1697405787350093
  0.5874655842540548  0.0857706689925735  0.1704621455827819
  0.9155736135941268  0.0824238995358400  0.1645951962801249
  0.2538018163022357  0.4170254718247364  0.5027897268257462
  0.5771851143217077  0.4144194490594515  0.4992532803382304
  0.9179082998766290  0.4134341035076616  0.4982360664284968
  0.5784640453337317  0.7505391796661556  0.5004810124662527
  0.9222633414739434  0.7532867052458059  0.5037673101981852
  0.2496932554387712  0.0880160083647255  0.4996187222091351
  0.5857285466214037  0.0836339800294397  0.5008238574539519
  0.9202724310016919  0.0866102558834640  0.5033907943248650
  0.2450176196605796  0.4178550141104367  0.8319931583807900
  0.5857645514535150  0.4188678268485262  0.8320931845377331
  0.9151763132807389  0.4162056742687668  0.8315720519220662
  0.2483999830536590  0.7482629135186443  0.8288021185478556
  0.5834094007125685  0.7488748162984677  0.8303223122184349
  0.9147407187442056  0.7526464333475289  0.8324434968179162
  0.2467584116835226  0.0819684441144375  0.8315964701560929
  0.9156635643095754  0.0811912015801255  0.8315835481680978
  0.9942371934303367  0.6630389373933738  0.9952422650892956
  0.3279460610500422  0.6659964219585959  0.9935339583992473
  0.6716787439501601  0.6713004114995869  0.9956010509560258
  0.9960367040645295  0.0002903537280474  0.9961205961227506
  0.6710593353113836  0.9988252390942165  0.0016597259829183
  0.3327465749795167  0.3306793835293007  0.3325931754569851
  0.6637312194550233  0.3297464654134714  0.3302390912832180
  0.0002777541893195  0.6639047350268328  0.3333313068113455
  0.3354125250411570  0.6679226892558603  0.3330673459257554
  0.9986520159165977  0.0058789735867322  0.3352806568906743
  0.3394744588326404  0.0036814632901354  0.3387241268117265
  0.6641027897738070  0.0018814570193015  0.3344501656886223
  0.0009962721905268  0.3306227593639903  0.6691814847497355
  0.3346755365047827  0.3351146369327509  0.6692459762899361
  0.6656579253547434  0.3362786872906369  0.6674565716665484
  0.9996608568480028  0.6680675975081982  0.6683854839075707
  0.3378328538975808  0.6679167646987665  0.6684691745251925
  0.6645620900963820  0.6684251525819604  0.6682138006566092
  0.9999365420659956  0.0013885690925832  0.6662907882892029
  0.6709866163409828  0.9970699674396712  0.6648196560035728
  0.0814788740055903  0.5845808414527909  0.1646191760668785
  0.4195275938255705  0.9220030546793367  0.1760820253461404
  0.7552217597231135  0.9204676460640471  0.1658993893578184
  0.0857425703804893  0.2409614672398064  0.1638728354342973
  0.4164712873631515  0.2505050176601173  0.1703278362628851
  0.7512870818693074  0.2458270485197573  0.1679263248133083
  0.0800509771398623  0.5891251357693363  0.5025787576039846
  0.4193968541866084  0.5817872811028977  0.5032325613153148
  0.0848182627112735  0.9195774095408566  0.5046562181819354
  0.4203240871701226  0.9181435893655205  0.4986609239714639
  0.7499103681188402  0.9231074541980178  0.5044225898819619
  0.0861537121461922  0.2459308179795343  0.5009706566170635
  0.4151086264667327  0.2513426075719707  0.4976994486006632
  0.0809923296142756  0.5828346434240714  0.8339466367083475
  0.4174063678189910  0.5807538240915662  0.8307071686672600
  0.7502306563021435  0.5856329318119649  0.8349105352999615
  0.0767260269111603  0.9154560828288396  0.8276690606557011
  0.4183767520639634  0.9146537306088121  0.8297298520581151
  0.7519781874896552  0.9135285188338216  0.8327366359980246
  0.0807113700004365  0.2473957762345051  0.8284646997933507
  0.4084647405209765  0.2515100869497857  0.8310197821292817
  0.7544472310546837  0.2494816958322730  0.8311116342054063
  0.0015958156533600  0.3321572866783384  0.0018704625187311
  0.3304514620284635  0.3289780925094590  0.9972977596593111
  0.6633496769894407  0.3297144459457542  0.9997237933499505
  0.3307001270396839  0.0012882800766931  0.0010119710768777
  0.0015402033658560  0.3319687210053601  0.3323940564057963
  0.6735135106617562  0.6679542138457037  0.3402127243209350
  0.3286826501556774  0.9983778216735644  0.6660580267383054
  0.4089893233485853  0.5838884582248483  0.1686011033229846
  0.7480579268884355  0.5802722909899316  0.1655630874354799
  0.0845370532177370  0.9228831512667952  0.1664980801976057
  0.7533338168750703  0.5808806368327168  0.4976283820635956
  0.7479263073684734  0.2483056993543329  0.4984557311013162
  0.1313618554481693  0.4654456246948868  0.0879873291503159
  0.4663607303343156  0.4565315122829858  0.0902117295765592
  0.7998615299558409  0.4559028026217931  0.0786948842662909
  0.1204247399985761  0.7810694811009640  0.0825384572593677
  0.4412857995866517  0.7951099243659243  0.0815938700231484
  0.7908115061882413  0.7945538312777529  0.0822294328320226
  0.1214938935730956  0.1187900472585852  0.0798062834201119
  0.4637195328365991  0.1317507153908934  0.0915818227411336
  0.7901317225855635  0.1246318382796758  0.0830352752985775
  0.1302508857762206  0.4668569939188814  0.4300182566748418
  0.4516238857597017  0.4550813078168545  0.4180177102635270
  0.7923180735984090  0.4459022353892053  0.4096467972911313
  0.1160720681528531  0.7920656590148027  0.4199972821611837
  0.4550406995275651  0.7925466313842833  0.4160362686275292
  0.7996034312648632  0.8021674220200055  0.4298810544460139
  0.1235690365071989  0.1251228689007107  0.4147799803931633
  0.4602236142725644  0.1275464219753957  0.4198918845458408
  0.7935825910949958  0.1165384506426363  0.4129147225172716
  0.1175250835067985  0.4567325160152009  0.7526172405123575
  0.4579302347466410  0.4576350096849779  0.7488899033498200
  0.7876982707335429  0.4581155392153775  0.7544001862654426
  0.1205251708000077  0.7909556860830236  0.7505660275318888
  0.4587253686631669  0.7921100358797801  0.7481646111925571
  0.7885039832295817  0.7897692949726292  0.7471942059766405
  0.1232371583530636  0.1250020904724423  0.7479635441564625
  0.4568082502591508  0.1329259605748305  0.7557317218941648
  0.7905209543288692  0.1231356180910694  0.7492038204642242
  0.2854304655806459  0.6265868599043998  0.0744592412508780
  0.6289292591765943  0.6332307111129083  0.0770636848548563
  0.9603039698147171  0.6265947401394243  0.0816970535589476
  0.2971262568693049  0.9635574305594332  0.0961365527605125
  0.6334658107933109  0.9650703318521607  0.0883973474317017
  0.9505903456753870  0.9602125537017159  0.0749275944389680
  0.2891629719184863  0.2841880483612371  0.0861280419888857
  0.6248485833016346  0.2846135173965578  0.0882785624180684
  0.9622111803914848  0.2863777673944199  0.0902846465816083
  0.3047633859329721  0.6256811871528498  0.4184445143211448
  0.6121731502412828  0.6224171965672340  0.4173429073469208
  0.9587245780487450  0.6253032146963022  0.4158487306492447
  0.3006905028900846  0.9670389704929505  0.4233833679945462
  0.6280908909450176  0.9604992015240228  0.4177338579517951
  0.9716733460776794  0.9702561576668245  0.4253963242558143
  0.2929744568901214  0.2935470760535068  0.4161836465447024
  0.6180126193462314  0.2945750139092382  0.4121858266195702
  0.9613840784958896  0.2864009701154444  0.4217864982888884
  0.2999177556031185  0.6293726965885185  0.7522742457847400
  0.6277484677732090  0.6245414459725254  0.7498526908476677
  0.9658346057876699  0.6334670144347569  0.7556882715182311
  0.2891407977117453  0.9543740610125013  0.7546622024650773
  0.6324455075430393  0.9504604308719493  0.7450385375832624
  0.9561688696340624  0.9580748768601097  0.7461873530452934
  0.2900298641829906  0.2942932017508539  0.7498188163011150
  0.6354556148577188  0.2988810747456725  0.7549656074860138
  0.9574343822501490  0.2906544235874478  0.7493020740349934
  0.2076351223509505  0.3611126214559235  0.2441208715204652
  0.5392088855683070  0.3718950342139138  0.2528757529210708
  0.8694560729281804  0.3734685970591940  0.2428813805704237
  0.2109909458939612  0.7002204835801820  0.2465470599579902
  0.5405291053633476  0.7160521659519361  0.2577969540005185
  0.8836527830388832  0.7078970852348263  0.2498210086565962
  0.2197342950150585  0.0490224244465267  0.2586360169644877
  0.5430293713527732  0.0429481875617128  0.2526766174945578
  0.8773371624239061  0.0424594496149595  0.2499019829425535
  0.2110659454398203  0.3661924697325389  0.5798547386426804
  0.5402926231047331  0.3717231416912554  0.5838231923109660
  0.8849487587294291  0.3739939369352143  0.5846938907321899
  0.2072259044307856  0.7054885778385867  0.5921508459090461
  0.5417119586541546  0.7047735600523382  0.5835592621319989
  0.8825317125993024  0.7139104242455261  0.5882132236140336
  0.2022064969523285  0.0462609372597882  0.5789681738618313
  0.5473109725323155  0.0335696494258428  0.5799594024988579
  0.8760972939314868  0.0425677003242271  0.5846488137713450
  0.1990451322571758  0.3751249233002127  0.9116419202004522
  0.5353771395994613  0.3678808272772969  0.9042896061017984
  0.8716965629861662  0.3760864055350979  0.9125528992792624
  0.2066889562280636  0.7009667295634685  0.9078662704858118
  0.5440194722743925  0.6997577533691910  0.9098054023480273
  0.8740355695480773  0.7079525639711974  0.9151151160071223
  0.1978896642761043  0.0395844718162692  0.9096170998539250
  0.5417470391268111  0.0342915904393166  0.9223996200580160
  0.8740964224172814  0.0385962134822933  0.9143315458879968
  0.0374837807082358  0.5446932017511585  0.2454399783079850
  0.3692562240176116  0.5353489778829399  0.2551340784709950
  0.7082781735041408  0.5313349753311130  0.2514943287201632
  0.0315362417865046  0.8798748428536598  0.2502356140537785
  0.3734036189976919  0.8780836935106606  0.2531278403072434
  0.7099987587710856  0.8899899181744289  0.2497333784736355
  0.0455050209269316  0.2003138738575103  0.2446291745087876
  0.3753081542367411  0.2106236782982620  0.2515482967186173
  0.7119063984924168  0.2101427398218263  0.2533056940890361
  0.0321065947912018  0.5461029428324977  0.5786237345017398
  0.3772674213279430  0.5439887536128154  0.5856689305812566
  0.6957050936726930  0.5422009613082608  0.5816737705110455
  0.0453130736047385  0.8793004758868364  0.5869467627973961
  0.3882244538444510  0.8786344634745831  0.5849016383747880
  0.7068932706117153  0.8732085397228673  0.5805180381790080
  0.0425027701843703  0.2133072209433351  0.5854543277865289
  0.3693260818767143  0.2152999264997675  0.5792071035898019
  0.7066742767593013  0.2094863161945284  0.5900506973664079
  0.0374982918218620  0.5428898918267535  0.9145510966089176
  0.3661605044236538  0.5449316248490277  0.9097343192778808
  0.7097296441353151  0.5452910408717599  0.9171206425810752
  0.0336923329854173  0.8805686021420485  0.9110955105719398
  0.3690505381809359  0.8726585484542255  0.9055025790974440
  0.7068495321102048  0.8758489443553827  0.9144819591577260
  0.0424175649785639  0.2021899103986584  0.9097277329891682
  0.3774345225109883  0.1988269814657286  0.9111362867450978
  0.7217626455129817  0.2084786775909890  0.9163849462375211

  0.00000000E+00  0.00000000E+00  0.00000000E+00
  0.00000000E+00  0.00000000E+00  0.00000000E+00
  0.00000000E+00  0.00000000E+00  0.00000000E+00
  0.00000000E+00  0.00000000E+00  0.00000000E+00
  0.00000000E+00  0.00000000E+00  0.00000000E+00
  0.00000000E+00  0.00000000E+00  0.00000000E+00
  0.00000000E+00  0.00000000E+00  0.00000000E+00
  0.00000000E+00  0.00000000E+00  0.00000000E+00
  0.00000000E+00  0.00000000E+00  0.00000000E+00
  0.00000000E+00  0.00000000E+00  0.00000000E+00
  0.00000000E+00  0.00000000E+00  0.00000000E+00
  0.00000000E+00  0.00000000E+00  0.00000000E+00
  0.00000000E+00  0.00000000E+00  0.00000000E+00
  0.00000000E+00  0.00000000E+00  0.00000000E+00
  0.00000000E+00  0.00000000E+00  0.00000000E+00
  0.00000000E+00  0.00000000E+00  0.00000000E+00
  0.00000000E+00  0.00000000E+00  0.00000000E+00
  0.00000000E+00  0.00000000E+00  0.00000000E+00
  0.00000000E+00  0.00000000E+00  0.00000000E+00
  0.00000000E+00  0.00000000E+00  0.00000000E+00
  0.00000000E+00  0.00000000E+00  0.00000000E+00
  0.00000000E+00  0.00000000E+00  0.00000000E+00
  0.00000000E+00  0.00000000E+00  0.00000000E+00
  0.00000000E+00  0.00000000E+00  0.00000000E+00
  0.00000000E+00  0.00000000E+00  0.00000000E+00
  0.00000000E+00  0.00000000E+00  0.00000000E+00
  0.00000000E+00  0.00000000E+00  0.00000000E+00
  0.00000000E+00  0.00000000E+00  0.00000000E+00
  0.00000000E+00  0.00000000E+00  0.00000000E+00
  0.00000000E+00  0.00000000E+00  0.00000000E+00
  0.00000000E+00  0.00000000E+00  0.00000000E+00
  0.00000000E+00  0.00000000E+00  0.00000000E+00
  0.00000000E+00  0.00000000E+00  0.00000000E+00
  0.00000000E+00  0.00000000E+00  0.00000000E+00
  0.00000000E+00  0.00000000E+00  0.00000000E+00
  0.00000000E+00  0.00000000E+00  0.00000000E+00
  0.00000000E+00  0.00000000E+00  0.00000000E+00
  0.00000000E+00  0.00000000E+00  0.00000000E+00
  0.00000000E+00  0.00000000E+00  0.00000000E+00
  0.00000000E+00  0.00000000E+00  0.00000000E+00
  0.00000000E+00  0.00000000E+00  0.00000000E+00
  0.00000000E+00  0.00000000E+00  0.00000000E+00
  0.00000000E+00  0.00000000E+00  0.00000000E+00
  0.00000000E+00  0.00000000E+00  0.00000000E+00
  0.00000000E+00  0.00000000E+00  0.00000000E+00
  0.00000000E+00  0.00000000E+00  0.00000000E+00
  0.00000000E+00  0.00000000E+00  0.00000000E+00
  0.00000000E+00  0.00000000E+00  0.00000000E+00
  0.00000000E+00  0.00000000E+00  0.00000000E+00
  0.00000000E+00  0.00000000E+00  0.00000000E+00
  0.00000000E+00  0.00000000E+00  0.00000000E+00
  0.00000000E+00  0.00000000E+00  0.00000000E+00
  0.00000000E+00  0.00000000E+00  0.00000000E+00
  0.00000000E+00  0.00000000E+00  0.00000000E+00
  0.00000000E+00  0.00000000E+00  0.00000000E+00
  0.00000000E+00  0.00000000E+00  0.00000000E+00
  0.00000000E+00  0.00000000E+00  0.00000000E+00
  0.00000000E+00  0.00000000E+00  0.00000000E+00
  0.00000000E+00  0.00000000E+00  0.00000000E+00
  0.00000000E+00  0.00000000E+00  0.00000000E+00
  0.00000000E+00  0.00000000E+00  0.00000000E+00
  0.00000000E+00  0.00000000E+00  0.00000000E+00
  0.00000000E+00  0.00000000E+00  0.00000000E+00
  0.00000000E+00  0.00000000E+00  0.00000000E+00
  0.00000000E+00  0.00000000E+00  0.00000000E+00
  0.00000000E+00  0.00000000E+00  0.00000000E+00
  0.00000000E+00  0.00000000E+00  0.00000000E+00
  0.00000000E+00  0.00000000E+00  0.00000000E+00
  0.00000000E+00  0.00000000E+00  0.00000000E+00
  0.00000000E+00  0.00000000E+00  0.00000000E+00
  0.00000000E+00  0.00000000E+00  0.00000000E+00
  0.00000000E+00  0.00000000E+00  0.00000000E+00
  0.00000000E+00  0.00000000E+00  0.00000000E+00
  0.00000000E+00  0.00000000E+00  0.00000000E+00
  0.00000000E+00  0.00000000E+00  0.00000000E+00
  0.00000000E+00  0.00000000E+00  0.00000000E+00
  0.00000000E+00  0.00000000E+00  0.00000000E+00
  0.00000000E+00  0.00000000E+00  0.00000000E+00
  0.00000000E+00  0.00000000E+00  0.00000000E+00
  0.00000000E+00  0.00000000E+00  0.00000000E+00
  0.00000000E+00  0.00000000E+00  0.00000000E+00
  0.00000000E+00  0.00000000E+00  0.00000000E+00
  0.00000000E+00  0.00000000E+00  0.00000000E+00
  0.00000000E+00  0.00000000E+00  0.00000000E+00
  0.00000000E+00  0.00000000E+00  0.00000000E+00
  0.00000000E+00  0.00000000E+00  0.00000000E+00
  0.00000000E+00  0.00000000E+00  0.00000000E+00
  0.00000000E+00  0.00000000E+00  0.00000000E+00
  0.00000000E+00  0.00000000E+00  0.00000000E+00
  0.00000000E+00  0.00000000E+00  0.00000000E+00
  0.00000000E+00  0.00000000E+00  0.00000000E+00
  0.00000000E+00  0.00000000E+00  0.00000000E+00
  0.00000000E+00  0.00000000E+00  0.00000000E+00
  0.00000000E+00  0.00000000E+00  0.00000000E+00
  0.00000000E+00  0.00000000E+00  0.00000000E+00
  0.00000000E+00  0.00000000E+00  0.00000000E+00
  0.00000000E+00  0.00000000E+00  0.00000000E+00
  0.00000000E+00  0.00000000E+00  0.00000000E+00
  0.00000000E+00  0.00000000E+00  0.00000000E+00
  0.00000000E+00  0.00000000E+00  0.00000000E+00
  0.00000000E+00  0.00000000E+00  0.00000000E+00
  0.00000000E+00  0.00000000E+00  0.00000000E+00
  0.00000000E+00  0.00000000E+00  0.00000000E+00
  0.00000000E+00  0.00000000E+00  0.00000000E+00
  0.00000000E+00  0.00000000E+00  0.00000000E+00
  0.00000000E+00  0.00000000E+00  0.00000000E+00
  0.00000000E+00  0.00000000E+00  0.00000000E+00
  0.00000000E+00  0.00000000E+00  0.00000000E+00
  0.00000000E+00  0.00000000E+00  0.00000000E+00
  0.00000000E+00  0.00000000E+00  0.00000000E+00
  0.00000000E+00  0.00000000E+00  0.00000000E+00
  0.00000000E+00  0.00000000E+00  0.00000000E+00
  0.00000000E+00  0.00000000E+00  0.00000000E+00
  0.00000000E+00  0.00000000E+00  0.00000000E+00
  0.00000000E+00  0.00000000E+00  0.00000000E+00
  0.00000000E+00  0.00000000E+00  0.00000000E+00
  0.00000000E+00  0.00000000E+00  0.00000000E+00
  0.00000000E+00  0.00000000E+00  0.00000000E+00
  0.00000000E+00  0.00000000E+00  0.00000000E+00
  0.00000000E+00  0.00000000E+00  0.00000000E+00
  0.00000000E+00  0.00000000E+00  0.00000000E+00
  0.00000000E+00  0.00000000E+00  0.00000000E+00
  0.00000000E+00  0.00000000E+00  0.00000000E+00
  0.00000000E+00  0.00000000E+00  0.00000000E+00
  0.00000000E+00  0.00000000E+00  0.00000000E+00
  0.00000000E+00  0.00000000E+00  0.00000000E+00
  0.00000000E+00  0.00000000E+00  0.00000000E+00
  0.00000000E+00  0.00000000E+00  0.00000000E+00
  0.00000000E+00  0.00000000E+00  0.00000000E+00
  0.00000000E+00  0.00000000E+00  0.00000000E+00
  0.00000000E+00  0.00000000E+00  0.00000000E+00
  0.00000000E+00  0.00000000E+00  0.00000000E+00
  0.00000000E+00  0.00000000E+00  0.00000000E+00
  0.00000000E+00  0.00000000E+00  0.00000000E+00
  0.00000000E+00  0.00000000E+00  0.00000000E+00
  0.00000000E+00  0.00000000E+00  0.00000000E+00
  0.00000000E+00  0.00000000E+00  0.00000000E+00
  0.00000000E+00  0.00000000E+00  0.00000000E+00
  0.00000000E+00  0.00000000E+00  0.00000000E+00
  0.00000000E+00  0.00000000E+00  0.00000000E+00
  0.00000000E+00  0.00000000E+00  0.00000000E+00
  0.00000000E+00  0.00000000E+00  0.00000000E+00
  0.00000000E+00  0.00000000E+00  0.00000000E+00
  0.00000000E+00  0.00000000E+00  0.00000000E+00
  0.00000000E+00  0.00000000E+00  0.00000000E+00
  0.00000000E+00  0.00000000E+00  0.00000000E+00
  0.00000000E+00  0.00000000E+00  0.00000000E+00
  0.00000000E+00  0.00000000E+00  0.00000000E+00
  0.00000000E+00  0.00000000E+00  0.00000000E+00
  0.00000000E+00  0.00000000E+00  0.00000000E+00
  0.00000000E+00  0.00000000E+00  0.00000000E+00
  0.00000000E+00  0.00000000E+00  0.00000000E+00
  0.00000000E+00  0.00000000E+00  0.00000000E+00
  0.00000000E+00  0.00000000E+00  0.00000000E+00
  0.00000000E+00  0.00000000E+00  0.00000000E+00
  0.00000000E+00  0.00000000E+00  0.00000000E+00
  0.00000000E+00  0.00000000E+00  0.00000000E+00
  0.00000000E+00  0.00000000E+00  0.00000000E+00
  0.00000000E+00  0.00000000E+00  0.00000000E+00
  0.00000000E+00  0.00000000E+00  0.00000000E+00
  0.00000000E+00  0.00000000E+00  0.00000000E+00
  0.00000000E+00  0.00000000E+00  0.00000000E+00
  0.00000000E+00  0.00000000E+00  0.00000000E+00
  0.00000000E+00  0.00000000E+00  0.00000000E+00
  0.00000000E+00  0.00000000E+00  0.00000000E+00
  0.00000000E+00  0.00000000E+00  0.00000000E+00
  0.00000000E+00  0.00000000E+00  0.00000000E+00
  0.00000000E+00  0.00000000E+00  0.00000000E+00
  0.00000000E+00  0.00000000E+00  0.00000000E+00
  0.00000000E+00  0.00000000E+00  0.00000000E+00
  0.00000000E+00  0.00000000E+00  0.00000000E+00
  0.00000000E+00  0.00000000E+00  0.00000000E+00
  0.00000000E+00  0.00000000E+00  0.00000000E+00
  0.00000000E+00  0.00000000E+00  0.00000000E+00
  0.00000000E+00  0.00000000E+00  0.00000000E+00
  0.00000000E+00  0.00000000E+00  0.00000000E+00
  0.00000000E+00  0.00000000E+00  0.00000000E+00
  0.00000000E+00  0.00000000E+00  0.00000000E+00
  0.00000000E+00  0.00000000E+00  0.00000000E+00
  0.00000000E+00  0.00000000E+00  0.00000000E+00
  0.00000000E+00  0.00000000E+00  0.00000000E+00
  0.00000000E+00  0.00000000E+00  0.00000000E+00
  0.00000000E+00  0.00000000E+00  0.00000000E+00
  0.00000000E+00  0.00000000E+00  0.00000000E+00
  0.00000000E+00  0.00000000E+00  0.00000000E+00
  0.00000000E+00  0.00000000E+00  0.00000000E+00
  0.00000000E+00  0.00000000E+00  0.00000000E+00
  0.00000000E+00  0.00000000E+00  0.00000000E+00
  0.00000000E+00  0.00000000E+00  0.00000000E+00
  0.00000000E+00  0.00000000E+00  0.00000000E+00
  0.00000000E+00  0.00000000E+00  0.00000000E+00
  0.00000000E+00  0.00000000E+00  0.00000000E+00
  0.00000000E+00  0.00000000E+00  0.00000000E+00
  0.00000000E+00  0.00000000E+00  0.00000000E+00
  0.00000000E+00  0.00000000E+00  0.00000000E+00
  0.00000000E+00  0.00000000E+00  0.00000000E+00
  0.00000000E+00  0.00000000E+00  0.00000000E+00
  0.00000000E+00  0.00000000E+00  0.00000000E+00
  0.00000000E+00  0.00000000E+00  0.00000000E+00
  0.00000000E+00  0.00000000E+00  0.00000000E+00
  0.00000000E+00  0.00000000E+00  0.00000000E+00
  0.00000000E+00  0.00000000E+00  0.00000000E+00
  0.00000000E+00  0.00000000E+00  0.00000000E+00
  0.00000000E+00  0.00000000E+00  0.00000000E+00
  0.00000000E+00  0.00000000E+00  0.00000000E+00
  0.00000000E+00  0.00000000E+00  0.00000000E+00
  0.00000000E+00  0.00000000E+00  0.00000000E+00
  0.00000000E+00  0.00000000E+00  0.00000000E+00
  0.00000000E+00  0.00000000E+00  0.00000000E+00
  0.00000000E+00  0.00000000E+00  0.00000000E+00
  0.00000000E+00  0.00000000E+00  0.00000000E+00
  0.00000000E+00  0.00000000E+00  0.00000000E+00
  0.00000000E+00  0.00000000E+00  0.00000000E+00
  0.00000000E+00  0.00000000E+00  0.00000000E+00
  0.00000000E+00  0.00000000E+00  0.00000000E+00
  0.00000000E+00  0.00000000E+00  0.00000000E+00
