In42 Ga12 Ag54 Se108                    
   1.0000000000000000     
    16.7881776313047695    0.0411046861547054   -7.7088098870069608
    -3.5921685291275596   16.3941989899236269   -7.7265434209410628
     0.0007041987829994    0.0220034074139031   22.1359296585700669
   In   Ga   Ag   Se
    42    12    54   108
Direct
  0.1679715731367679  0.4996780063403534  0.9974687704287746
  0.8333543447003535  0.5025309671109426  0.0016564359291920
  0.1676605965218272  0.8332920500174197  0.0001437242321387
  0.8351842813615562  0.8320457708484170  0.0011434173250393
  0.4995921510570938  0.1657159983204295  0.9993293506256720
  0.8308734986201003  0.1669136413554853  0.9989019132316059
  0.1673377924439734  0.5000373140182006  0.3358647627205613
  0.5003870199806570  0.5003893233486920  0.3323456562869964
  0.1618143475181881  0.8306679644808455  0.3312520595215176
  0.5022309835348011  0.8325064724225228  0.3339594247766797
  0.8371355943132031  0.8319205361984814  0.3342481400588255
  0.1648609480783989  0.1704178770262885  0.3347077481322600
  0.5021529738465134  0.1672696968734897  0.3345396482608720
  0.8336519549033738  0.1658698856858791  0.3339061396761451
  0.1697984149195193  0.4991475537409684  0.6678653461433868
  0.4959941149111629  0.4983643366704555  0.6649399066772048
  0.8362365193849541  0.5008126799597861  0.6669183398826704
  0.4987078579888617  0.8337335060573281  0.6659038258996475
  0.4982610870034421  0.1656937342860019  0.6664939712375713
  0.2475460162013405  0.4138424703403984  0.1637329491961665
  0.5870360183679892  0.4183148610480316  0.1664471047061795
  0.9148857791181157  0.4193345155313253  0.1694320689216795
  0.2506766238431126  0.7497680853695670  0.1665948051086872
  0.5807704514025147  0.7457445085689969  0.1619913558515407
  0.2501205121349486  0.0853229072783250  0.1654000487224749
  0.5825775914660412  0.0798980611842168  0.1648001268154218
  0.9148800009096689  0.0838938255913391  0.1659223209505925
  0.5856875200258642  0.4178936913116758  0.5007124191883676
  0.9176074397642395  0.4179605614731372  0.4990662389351215
  0.2464205822307903  0.7523962219682403  0.5017095952138249
  0.5869164114900300  0.7502254833627759  0.5026489577086863
  0.2463418856238633  0.0846843155619510  0.5014771901333788
  0.5879431982133738  0.0831540001241606  0.5031593466374460
  0.9202160037854981  0.0862311010112222  0.5050756967464309
  0.5810909139253511  0.4183865003388760  0.8347360990506445
  0.9151974228834518  0.4140450773319486  0.8320185116258827
  0.2532914734168799  0.7518647781831831  0.8335432388933057
  0.5808111919729413  0.7516304084201622  0.8347960997096777
  0.9188795686860090  0.7511799301271793  0.8310519039923179
  0.2460902491848742  0.0818723810918911  0.8301717469703789
  0.5813369855630910  0.0824973768180257  0.8321566219972212
  0.9186593889397727  0.0811679648830790  0.8307329067143741
  0.4954911644409918  0.4950610615000102  0.9970724407173606
  0.4995180290893870  0.8334923229114040  0.0000013228975320
  0.1670737561003790  0.1664006162719147  0.9980569545234772
  0.8338022822595619  0.5046926028962631  0.3367077634459790
  0.1630797590294151  0.8305999981449332  0.6651941867331530
  0.8359172862477635  0.8334215172039450  0.6645176364571483
  0.1662325424969211  0.1696895231505238  0.6689381129343914
  0.8360327375599255  0.1670756263293711  0.6679017104468130
  0.9154791746396569  0.7488561000453444  0.1660215780009153
  0.2483260880615177  0.4179721041410147  0.5005554352022017
  0.9181615949571125  0.7491560944630535  0.5023276825577909
  0.2507221893264813  0.4122847289437743  0.8327362315170532
  0.0029224961654819  0.3285190378830976  0.9992077420388981
  0.3319634442982391  0.3321324076896133  0.9966051891188528
  0.6632207182237551  0.3319933327036040  0.9974428090944727
  0.9981786646874795  0.6666160021901746  0.0008604401907419
  0.3355926492909020  0.6619629157834268  0.9935167642001019
  0.6650578166805658  0.6667961869979493  0.0022631964243871
  0.0007836302014965  0.0039581318874795  0.9992727826712908
  0.3303003669959139  0.0003475742981962  0.9979790534983977
  0.6650549664190990  0.9972805772922442  0.9994924170799706
  0.0020188207733938  0.3377289880934242  0.3367175939933063
  0.3328040220887871  0.3350678991154226  0.3367621957479869
  0.6674913446983197  0.3362748680296193  0.3326657791158141
  0.9947128571321073  0.6666299292427809  0.3355560117517626
  0.3364116797690500  0.6658411321471362  0.3338594314777055
  0.6748589691786080  0.6714474407842985  0.3363057253843564
  0.9960831415355855  0.9946924281168421  0.3295648319287210
  0.3343446774950607  0.0025850003636450  0.3346840601508063
  0.6697221071033539  0.9986953851746776  0.3347279072678617
  0.0049685845284273  0.3345934983371848  0.6713284708537159
  0.3301382517173792  0.3323044753303392  0.6674623526849217
  0.6688367573579583  0.3315114839895017  0.6675144474671271
  0.9988921046029873  0.6728971967058541  0.6659024570844352
  0.3289986489040118  0.6635299161014672  0.6627805484683549
  0.6686890583922391  0.6685886645340986  0.6678175013906795
  0.0006287647601297  0.9945021023564067  0.6618042743776442
  0.3284569254888225  0.9981984162911388  0.6680966184244639
  0.6722978482883590  0.0031736947782974  0.6690703987492697
  0.0813640596553498  0.5835030488137818  0.1668426498689968
  0.4176231576015894  0.5805297521192045  0.1628315028598450
  0.7468333806758594  0.5846479319446587  0.1653213025284686
  0.0832464952351302  0.9185710555177238  0.1686263688518963
  0.4192049889720764  0.9129160310248992  0.1651921331377082
  0.7469708814176457  0.9108156349635479  0.1636740705440971
  0.0824410092213412  0.2474544551493949  0.1627102249025683
  0.4119684572976539  0.2501807924283810  0.1640246056066559
  0.7560446081352481  0.2564077187646703  0.1733675128452106
  0.0800221017229177  0.5856287253887160  0.5005665263475549
  0.4131535019913670  0.5822093875853085  0.4993912863869525
  0.7542887566216478  0.5865592319563291  0.5000610730584398
  0.0860394122929975  0.9215695530611256  0.5088688983941552
  0.4129146721632466  0.9174474584960350  0.4972621021075412
  0.7558121433592149  0.9167259632198892  0.5057658381283545
  0.0867476036267760  0.2507549699236549  0.5033005302022815
  0.4145996967001437  0.2530105803936777  0.4994100821939185
  0.7523677992019486  0.2511637932576392  0.5046682643091884
  0.0858860046844185  0.5793592980938200  0.8328567907049660
  0.4190944819979805  0.5861096711174625  0.8420820569517176
  0.7473201481058638  0.5846175207883064  0.8312652841252941
  0.0835642807358141  0.9173006439141886  0.8309245037575010
  0.4110297647498058  0.9145655816193212  0.8311671780339722
  0.7510261503222679  0.9110101555465135  0.8288986878506250
  0.0832720441941959  0.2469975398459425  0.8304391728837643
  0.4129140558208562  0.2535585705892842  0.8307465640821974
  0.7517237983082197  0.2504625858899985  0.8311242348549612
  0.1247222190978050  0.4589962869668582  0.0813141726999973
  0.4611779346014302  0.4568505581787861  0.0778396383815760
  0.7898260759006348  0.4579768255809569  0.0826800001578007
  0.1253716942412737  0.7922374509432970  0.0838216435334331
  0.4597579503596307  0.7908672438703164  0.0760746950379882
  0.7984990003919563  0.7870962841050897  0.0865812739561562
  0.1287888384591938  0.1279986782499520  0.0771287410472681
  0.4583831994991101  0.1247606364623621  0.0833699533964278
  0.7891488393757697  0.1263934344620452  0.0833964834120948
  0.1321821160188605  0.4601191695017945  0.4243940222242060
  0.4601499829358247  0.4593874290556670  0.4171587374878172
  0.7949743396004436  0.4618012764419959  0.4129669160622811
  0.1212295005240520  0.7938522063147389  0.4180383981573357
  0.4615899137511050  0.7925228807721183  0.4190023037421824
  0.8049246626861333  0.7930811927225818  0.4251096802141774
  0.1210619050218753  0.1225739083868760  0.4140357289650183
  0.4627097809572973  0.1270334715860599  0.4202803358768676
  0.7945595694046617  0.1255286479469575  0.4194660662950085
  0.1366269653902492  0.4557003631607870  0.7558636026625152
  0.4559536372862354  0.4599180494686976  0.7511957778420353
  0.7925996878520252  0.4594742813563002  0.7497764580705208
  0.1297531554880536  0.7946924361551808  0.7473581285522073
  0.4554891108396646  0.7901354307184292  0.7478583289942122
  0.7971194870517735  0.7921354052046397  0.7420093805837027
  0.1247055647603901  0.1241128779263008  0.7422664557035148
  0.4552675065829703  0.1247075069260219  0.7497412630579063
  0.7981449573018722  0.1288574050930436  0.7469840354165811
  0.2925180447952584  0.6257607462462431  0.0812019740286942
  0.6128436396610439  0.6133077755899023  0.0753083175684424
  0.9556186760236471  0.6320298445770902  0.0885513771460751
  0.2927389776398144  0.9586528010204631  0.0844196463893780
  0.6178907128840905  0.9494405244969073  0.0784214649833714
  0.9582075990307075  0.9599989615327829  0.0824851905862474
  0.2831055949700527  0.2850802041282705  0.0754186131281642
  0.6262166549361723  0.2902210147128912  0.0835955248929778
  0.9553026954247699  0.2932001482491629  0.0841872305139404
  0.2895156774943857  0.6280234597549637  0.4179107162380049
  0.6255725668851539  0.6258323652088009  0.4154835184317776
  0.9486999443805146  0.6263207248638878  0.4190353425353379
  0.2854612152678797  0.9586625276827334  0.4149668070973149
  0.6289113724052413  0.9568202529071854  0.4194749893463907
  0.9599885127733927  0.9597820811656419  0.4202143783664738
  0.2869913912986561  0.3001726070424411  0.4223551381371777
  0.6282299752026574  0.2925060922617888  0.4178689054400024
  0.9593753347332594  0.2908682772773901  0.4179060473229512
  0.2946941821567890  0.6247261439868268  0.7522746666947526
  0.6201295868633920  0.6258129943320156  0.7485054705924483
  0.9621699052318036  0.6254154466851674  0.7496989152506117
  0.2795513212819216  0.9490568212725847  0.7446457239629467
  0.6248447989117807  0.9581388990211082  0.7493074556318859
  0.9525011796993184  0.9509045862956711  0.7430960238263964
  0.2810219074471405  0.2910527493231996  0.7487680056591728
  0.6223576120655210  0.2924093796954494  0.7508557811464911
  0.9523448690023102  0.2850433749464827  0.7463939949783764
  0.2075611455627495  0.3752731013278918  0.2498806812361707
  0.5399637257109404  0.3749778454357724  0.2467030928839407
  0.8760227290097546  0.3880666994801913  0.2604044744230762
  0.2092548668299656  0.7082441822290235  0.2505772945686005
  0.5440095043806181  0.7071580376699202  0.2498972958897099
  0.8752451752011794  0.7090285865145702  0.2435385764430222
  0.2082546707776913  0.0461738825666060  0.2508192843132449
  0.5432876905738908  0.0410208974918760  0.2510991870515014
  0.8714967987914122  0.0395060573031145  0.2472655554148773
  0.2108134939988489  0.3778662694650450  0.5788646531867911
  0.5435534017744530  0.3759850390540294  0.5842066869007851
  0.8793438993445903  0.3759455959312135  0.5846356049311581
  0.2039463474545684  0.7149511900826013  0.5876252865851583
  0.5403285663961270  0.7076668322658080  0.5831621544261623
  0.8753833338959964  0.7180922026455292  0.5830466530122749
  0.2066765212532786  0.0528213024075725  0.5917594225501901
  0.5421425751312512  0.0408918800082176  0.5842959770116849
  0.8754087654573013  0.0499814100310729  0.5901653309204420
  0.2083860828853545  0.3751758149679674  0.9100135130702682
  0.5376104875170924  0.3804699223073413  0.9199746677911804
  0.8771018888126179  0.3770125583964941  0.9196124810887270
  0.2087447177119870  0.7087249339300925  0.9149555143336912
  0.5405141277891303  0.7167641007709378  0.9234848528932389
  0.8750003513944478  0.7087585143100341  0.9136275047903055
  0.2048846784111831  0.0485771147944476  0.9190017334132605
  0.5390937237138758  0.0392837295515207  0.9146565298250877
  0.8729890718729152  0.0425434238597049  0.9139783834238244
  0.0417008168488806  0.5429644511894480  0.2531915563194929
  0.3738797935019420  0.5387933864338166  0.2464156179446775
  0.7167583594449809  0.5411697216959368  0.2554830757515845
  0.0328051535462492  0.8657980804584042  0.2433258925152941
  0.3766793012908494  0.8750590355638010  0.2509950490883313
  0.7081809316014684  0.8699479676803321  0.2498234009819598
  0.0396068029399572  0.2101808110759862  0.2487782616265477
  0.3761003346323548  0.2103023556103452  0.2524264695965073
  0.7076623998209186  0.2061372481530981  0.2497605791049011
  0.0431992318175745  0.5427385005162435  0.5870605089045426
  0.3664473297117397  0.5338333307257273  0.5777121308989095
  0.7114196970682514  0.5429493463579931  0.5832241850415514
  0.0413888392183637  0.8622019155591047  0.5826445466726966
  0.3729651237777034  0.8761370556393757  0.5830472029915370
  0.7165199433104448  0.8727767479875297  0.5899824217532625
  0.0501069895614279  0.2081011217379185  0.5897568918723763
  0.3734037312181115  0.2080227165869033  0.5828677006973422
  0.7174905882547478  0.2056223652371685  0.5903747774298935
  0.0400039955466127  0.5404469926393816  0.9159095361762226
  0.3734252371656837  0.5264647387829342  0.9149066888522484
  0.7075337365637253  0.5423672540319444  0.9163268579388131
  0.0437066987194186  0.8765476313241294  0.9167613525637606
  0.3823713778529054  0.8742426322001009  0.9230351411325231
  0.7099036166835475  0.8732929029050069  0.9159988733799693
  0.0490886008423459  0.2035033763961351  0.9183623928159363
  0.3737394110054950  0.2046782951353165  0.9133720158761278
  0.7064434133814501  0.2077427764277502  0.9134906018426960

  0.00000000E+00  0.00000000E+00  0.00000000E+00
  0.00000000E+00  0.00000000E+00  0.00000000E+00
  0.00000000E+00  0.00000000E+00  0.00000000E+00
  0.00000000E+00  0.00000000E+00  0.00000000E+00
  0.00000000E+00  0.00000000E+00  0.00000000E+00
  0.00000000E+00  0.00000000E+00  0.00000000E+00
  0.00000000E+00  0.00000000E+00  0.00000000E+00
  0.00000000E+00  0.00000000E+00  0.00000000E+00
  0.00000000E+00  0.00000000E+00  0.00000000E+00
  0.00000000E+00  0.00000000E+00  0.00000000E+00
  0.00000000E+00  0.00000000E+00  0.00000000E+00
  0.00000000E+00  0.00000000E+00  0.00000000E+00
  0.00000000E+00  0.00000000E+00  0.00000000E+00
  0.00000000E+00  0.00000000E+00  0.00000000E+00
  0.00000000E+00  0.00000000E+00  0.00000000E+00
  0.00000000E+00  0.00000000E+00  0.00000000E+00
  0.00000000E+00  0.00000000E+00  0.00000000E+00
  0.00000000E+00  0.00000000E+00  0.00000000E+00
  0.00000000E+00  0.00000000E+00  0.00000000E+00
  0.00000000E+00  0.00000000E+00  0.00000000E+00
  0.00000000E+00  0.00000000E+00  0.00000000E+00
  0.00000000E+00  0.00000000E+00  0.00000000E+00
  0.00000000E+00  0.00000000E+00  0.00000000E+00
  0.00000000E+00  0.00000000E+00  0.00000000E+00
  0.00000000E+00  0.00000000E+00  0.00000000E+00
  0.00000000E+00  0.00000000E+00  0.00000000E+00
  0.00000000E+00  0.00000000E+00  0.00000000E+00
  0.00000000E+00  0.00000000E+00  0.00000000E+00
  0.00000000E+00  0.00000000E+00  0.00000000E+00
  0.00000000E+00  0.00000000E+00  0.00000000E+00
  0.00000000E+00  0.00000000E+00  0.00000000E+00
  0.00000000E+00  0.00000000E+00  0.00000000E+00
  0.00000000E+00  0.00000000E+00  0.00000000E+00
  0.00000000E+00  0.00000000E+00  0.00000000E+00
  0.00000000E+00  0.00000000E+00  0.00000000E+00
  0.00000000E+00  0.00000000E+00  0.00000000E+00
  0.00000000E+00  0.00000000E+00  0.00000000E+00
  0.00000000E+00  0.00000000E+00  0.00000000E+00
  0.00000000E+00  0.00000000E+00  0.00000000E+00
  0.00000000E+00  0.00000000E+00  0.00000000E+00
  0.00000000E+00  0.00000000E+00  0.00000000E+00
  0.00000000E+00  0.00000000E+00  0.00000000E+00
  0.00000000E+00  0.00000000E+00  0.00000000E+00
  0.00000000E+00  0.00000000E+00  0.00000000E+00
  0.00000000E+00  0.00000000E+00  0.00000000E+00
  0.00000000E+00  0.00000000E+00  0.00000000E+00
  0.00000000E+00  0.00000000E+00  0.00000000E+00
  0.00000000E+00  0.00000000E+00  0.00000000E+00
  0.00000000E+00  0.00000000E+00  0.00000000E+00
  0.00000000E+00  0.00000000E+00  0.00000000E+00
  0.00000000E+00  0.00000000E+00  0.00000000E+00
  0.00000000E+00  0.00000000E+00  0.00000000E+00
  0.00000000E+00  0.00000000E+00  0.00000000E+00
  0.00000000E+00  0.00000000E+00  0.00000000E+00
  0.00000000E+00  0.00000000E+00  0.00000000E+00
  0.00000000E+00  0.00000000E+00  0.00000000E+00
  0.00000000E+00  0.00000000E+00  0.00000000E+00
  0.00000000E+00  0.00000000E+00  0.00000000E+00
  0.00000000E+00  0.00000000E+00  0.00000000E+00
  0.00000000E+00  0.00000000E+00  0.00000000E+00
  0.00000000E+00  0.00000000E+00  0.00000000E+00
  0.00000000E+00  0.00000000E+00  0.00000000E+00
  0.00000000E+00  0.00000000E+00  0.00000000E+00
  0.00000000E+00  0.00000000E+00  0.00000000E+00
  0.00000000E+00  0.00000000E+00  0.00000000E+00
  0.00000000E+00  0.00000000E+00  0.00000000E+00
  0.00000000E+00  0.00000000E+00  0.00000000E+00
  0.00000000E+00  0.00000000E+00  0.00000000E+00
  0.00000000E+00  0.00000000E+00  0.00000000E+00
  0.00000000E+00  0.00000000E+00  0.00000000E+00
  0.00000000E+00  0.00000000E+00  0.00000000E+00
  0.00000000E+00  0.00000000E+00  0.00000000E+00
  0.00000000E+00  0.00000000E+00  0.00000000E+00
  0.00000000E+00  0.00000000E+00  0.00000000E+00
  0.00000000E+00  0.00000000E+00  0.00000000E+00
  0.00000000E+00  0.00000000E+00  0.00000000E+00
  0.00000000E+00  0.00000000E+00  0.00000000E+00
  0.00000000E+00  0.00000000E+00  0.00000000E+00
  0.00000000E+00  0.00000000E+00  0.00000000E+00
  0.00000000E+00  0.00000000E+00  0.00000000E+00
  0.00000000E+00  0.00000000E+00  0.00000000E+00
  0.00000000E+00  0.00000000E+00  0.00000000E+00
  0.00000000E+00  0.00000000E+00  0.00000000E+00
  0.00000000E+00  0.00000000E+00  0.00000000E+00
  0.00000000E+00  0.00000000E+00  0.00000000E+00
  0.00000000E+00  0.00000000E+00  0.00000000E+00
  0.00000000E+00  0.00000000E+00  0.00000000E+00
  0.00000000E+00  0.00000000E+00  0.00000000E+00
  0.00000000E+00  0.00000000E+00  0.00000000E+00
  0.00000000E+00  0.00000000E+00  0.00000000E+00
  0.00000000E+00  0.00000000E+00  0.00000000E+00
  0.00000000E+00  0.00000000E+00  0.00000000E+00
  0.00000000E+00  0.00000000E+00  0.00000000E+00
  0.00000000E+00  0.00000000E+00  0.00000000E+00
  0.00000000E+00  0.00000000E+00  0.00000000E+00
  0.00000000E+00  0.00000000E+00  0.00000000E+00
  0.00000000E+00  0.00000000E+00  0.00000000E+00
  0.00000000E+00  0.00000000E+00  0.00000000E+00
  0.00000000E+00  0.00000000E+00  0.00000000E+00
  0.00000000E+00  0.00000000E+00  0.00000000E+00
  0.00000000E+00  0.00000000E+00  0.00000000E+00
  0.00000000E+00  0.00000000E+00  0.00000000E+00
  0.00000000E+00  0.00000000E+00  0.00000000E+00
  0.00000000E+00  0.00000000E+00  0.00000000E+00
  0.00000000E+00  0.00000000E+00  0.00000000E+00
  0.00000000E+00  0.00000000E+00  0.00000000E+00
  0.00000000E+00  0.00000000E+00  0.00000000E+00
  0.00000000E+00  0.00000000E+00  0.00000000E+00
  0.00000000E+00  0.00000000E+00  0.00000000E+00
  0.00000000E+00  0.00000000E+00  0.00000000E+00
  0.00000000E+00  0.00000000E+00  0.00000000E+00
  0.00000000E+00  0.00000000E+00  0.00000000E+00
  0.00000000E+00  0.00000000E+00  0.00000000E+00
  0.00000000E+00  0.00000000E+00  0.00000000E+00
  0.00000000E+00  0.00000000E+00  0.00000000E+00
  0.00000000E+00  0.00000000E+00  0.00000000E+00
  0.00000000E+00  0.00000000E+00  0.00000000E+00
  0.00000000E+00  0.00000000E+00  0.00000000E+00
  0.00000000E+00  0.00000000E+00  0.00000000E+00
  0.00000000E+00  0.00000000E+00  0.00000000E+00
  0.00000000E+00  0.00000000E+00  0.00000000E+00
  0.00000000E+00  0.00000000E+00  0.00000000E+00
  0.00000000E+00  0.00000000E+00  0.00000000E+00
  0.00000000E+00  0.00000000E+00  0.00000000E+00
  0.00000000E+00  0.00000000E+00  0.00000000E+00
  0.00000000E+00  0.00000000E+00  0.00000000E+00
  0.00000000E+00  0.00000000E+00  0.00000000E+00
  0.00000000E+00  0.00000000E+00  0.00000000E+00
  0.00000000E+00  0.00000000E+00  0.00000000E+00
  0.00000000E+00  0.00000000E+00  0.00000000E+00
  0.00000000E+00  0.00000000E+00  0.00000000E+00
  0.00000000E+00  0.00000000E+00  0.00000000E+00
  0.00000000E+00  0.00000000E+00  0.00000000E+00
  0.00000000E+00  0.00000000E+00  0.00000000E+00
  0.00000000E+00  0.00000000E+00  0.00000000E+00
  0.00000000E+00  0.00000000E+00  0.00000000E+00
  0.00000000E+00  0.00000000E+00  0.00000000E+00
  0.00000000E+00  0.00000000E+00  0.00000000E+00
  0.00000000E+00  0.00000000E+00  0.00000000E+00
  0.00000000E+00  0.00000000E+00  0.00000000E+00
  0.00000000E+00  0.00000000E+00  0.00000000E+00
  0.00000000E+00  0.00000000E+00  0.00000000E+00
  0.00000000E+00  0.00000000E+00  0.00000000E+00
  0.00000000E+00  0.00000000E+00  0.00000000E+00
  0.00000000E+00  0.00000000E+00  0.00000000E+00
  0.00000000E+00  0.00000000E+00  0.00000000E+00
  0.00000000E+00  0.00000000E+00  0.00000000E+00
  0.00000000E+00  0.00000000E+00  0.00000000E+00
  0.00000000E+00  0.00000000E+00  0.00000000E+00
  0.00000000E+00  0.00000000E+00  0.00000000E+00
  0.00000000E+00  0.00000000E+00  0.00000000E+00
  0.00000000E+00  0.00000000E+00  0.00000000E+00
  0.00000000E+00  0.00000000E+00  0.00000000E+00
  0.00000000E+00  0.00000000E+00  0.00000000E+00
  0.00000000E+00  0.00000000E+00  0.00000000E+00
  0.00000000E+00  0.00000000E+00  0.00000000E+00
  0.00000000E+00  0.00000000E+00  0.00000000E+00
  0.00000000E+00  0.00000000E+00  0.00000000E+00
  0.00000000E+00  0.00000000E+00  0.00000000E+00
  0.00000000E+00  0.00000000E+00  0.00000000E+00
  0.00000000E+00  0.00000000E+00  0.00000000E+00
  0.00000000E+00  0.00000000E+00  0.00000000E+00
  0.00000000E+00  0.00000000E+00  0.00000000E+00
  0.00000000E+00  0.00000000E+00  0.00000000E+00
  0.00000000E+00  0.00000000E+00  0.00000000E+00
  0.00000000E+00  0.00000000E+00  0.00000000E+00
  0.00000000E+00  0.00000000E+00  0.00000000E+00
  0.00000000E+00  0.00000000E+00  0.00000000E+00
  0.00000000E+00  0.00000000E+00  0.00000000E+00
  0.00000000E+00  0.00000000E+00  0.00000000E+00
  0.00000000E+00  0.00000000E+00  0.00000000E+00
  0.00000000E+00  0.00000000E+00  0.00000000E+00
  0.00000000E+00  0.00000000E+00  0.00000000E+00
  0.00000000E+00  0.00000000E+00  0.00000000E+00
  0.00000000E+00  0.00000000E+00  0.00000000E+00
  0.00000000E+00  0.00000000E+00  0.00000000E+00
  0.00000000E+00  0.00000000E+00  0.00000000E+00
  0.00000000E+00  0.00000000E+00  0.00000000E+00
  0.00000000E+00  0.00000000E+00  0.00000000E+00
  0.00000000E+00  0.00000000E+00  0.00000000E+00
  0.00000000E+00  0.00000000E+00  0.00000000E+00
  0.00000000E+00  0.00000000E+00  0.00000000E+00
  0.00000000E+00  0.00000000E+00  0.00000000E+00
  0.00000000E+00  0.00000000E+00  0.00000000E+00
  0.00000000E+00  0.00000000E+00  0.00000000E+00
  0.00000000E+00  0.00000000E+00  0.00000000E+00
  0.00000000E+00  0.00000000E+00  0.00000000E+00
  0.00000000E+00  0.00000000E+00  0.00000000E+00
  0.00000000E+00  0.00000000E+00  0.00000000E+00
  0.00000000E+00  0.00000000E+00  0.00000000E+00
  0.00000000E+00  0.00000000E+00  0.00000000E+00
  0.00000000E+00  0.00000000E+00  0.00000000E+00
  0.00000000E+00  0.00000000E+00  0.00000000E+00
  0.00000000E+00  0.00000000E+00  0.00000000E+00
  0.00000000E+00  0.00000000E+00  0.00000000E+00
  0.00000000E+00  0.00000000E+00  0.00000000E+00
  0.00000000E+00  0.00000000E+00  0.00000000E+00
  0.00000000E+00  0.00000000E+00  0.00000000E+00
  0.00000000E+00  0.00000000E+00  0.00000000E+00
  0.00000000E+00  0.00000000E+00  0.00000000E+00
  0.00000000E+00  0.00000000E+00  0.00000000E+00
  0.00000000E+00  0.00000000E+00  0.00000000E+00
  0.00000000E+00  0.00000000E+00  0.00000000E+00
  0.00000000E+00  0.00000000E+00  0.00000000E+00
  0.00000000E+00  0.00000000E+00  0.00000000E+00
  0.00000000E+00  0.00000000E+00  0.00000000E+00
  0.00000000E+00  0.00000000E+00  0.00000000E+00
  0.00000000E+00  0.00000000E+00  0.00000000E+00
  0.00000000E+00  0.00000000E+00  0.00000000E+00
  0.00000000E+00  0.00000000E+00  0.00000000E+00
  0.00000000E+00  0.00000000E+00  0.00000000E+00
  0.00000000E+00  0.00000000E+00  0.00000000E+00
  0.00000000E+00  0.00000000E+00  0.00000000E+00
  0.00000000E+00  0.00000000E+00  0.00000000E+00
  0.00000000E+00  0.00000000E+00  0.00000000E+00
  0.00000000E+00  0.00000000E+00  0.00000000E+00
