In54 Cu24 Ag30 Se108                    
   1.0000000000000000     
    16.5335975662517676   -0.0222555227896941   -7.3869731786197503
    -3.2660374692536629   16.2112153513066133   -7.3607969500388277
    -0.0375941091498434   -0.0542969156754328   22.1480978688611110
   In   Cu   Ag   Se
    54    24    30   108
Direct
  0.1662673442717733  0.5004315187876358  0.9948029450363194
  0.4972066161289277  0.4976640450925132  0.9986148985217582
  0.8312118731368230  0.4987841243518076  0.9962407889282829
  0.1676705525326554  0.8292181546836446  0.9978415008520258
  0.4932708071290293  0.8355722561524175  0.9978102628877750
  0.8378656724123914  0.8291802420010015  0.9986574731897306
  0.1713821969656877  0.1668747953448033  0.9998303614509325
  0.4957720842888946  0.1660543391604747  0.9982928278592311
  0.8309214748820963  0.1685978962286399  0.9986734587905914
  0.1702546447629985  0.5063325490718498  0.3372648215589464
  0.5016934225365262  0.5012957912637930  0.3344088940201786
  0.8307020133922123  0.5019060443772219  0.3366952006325334
  0.1742281149835705  0.8349311072078649  0.3364575019871268
  0.4983545552045570  0.8337975766723176  0.3384668613489765
  0.8336233608289660  0.8312779156039412  0.3349981396303576
  0.1715173922838886  0.1625506376598125  0.3354057041321568
  0.4993764161624981  0.1681616753598902  0.3344477386377562
  0.8302011396302760  0.1698656916906529  0.3344934785916038
  0.1603347438866578  0.5037979463404483  0.6654314899567737
  0.5056417825903665  0.5020208035657774  0.6663290695111712
  0.8354132439521464  0.5012965645645764  0.6681476106237554
  0.1654359710437134  0.8335077946820491  0.6643639885740953
  0.5009469158626203  0.8368678636433629  0.6672209687379578
  0.8334136563975818  0.8326427381787909  0.6665218401114288
  0.1650596060878016  0.1635189565766026  0.6675050027192384
  0.5011144057504993  0.1611403165350040  0.6654521814171375
  0.8330228625414833  0.1661473918967147  0.6658883203764034
  0.2535013016409735  0.4207185170332082  0.1696313071641242
  0.5820899963667827  0.4147952430431587  0.1673736649427795
  0.9145933962549648  0.4189599040100234  0.1660049137656543
  0.2509670855542794  0.7501389107677738  0.1687607814544876
  0.5787958825197279  0.7479087758417435  0.1656906689520810
  0.9214815709192834  0.7508420454379419  0.1674136058091875
  0.2529206066421068  0.0801161123995797  0.1651400788610431
  0.5772685981442862  0.0870048169228568  0.1675607161362649
  0.9199756306264177  0.0803952527144745  0.1677270333602934
  0.2513665094147086  0.4225223699750913  0.5012287974241616
  0.5858182436652584  0.4210326091414629  0.5028406282717839
  0.9143814041655673  0.4181949000600653  0.5009278655495493
  0.2521305285796913  0.7533059023594575  0.5010754547340923
  0.5809276066136491  0.7491454362869376  0.5026412217455558
  0.9201593217946069  0.7522267498392026  0.5035331817126760
  0.2537904110732683  0.0770529383018044  0.5025576636380151
  0.5803890610272617  0.0830748236814784  0.5018957660950747
  0.9203967401577344  0.0832328508574847  0.5028054132467119
  0.2424853936054632  0.4151874151061605  0.8299846507883757
  0.5855991087864538  0.4157652190432444  0.8301856249684789
  0.9173861192840249  0.4176562141220330  0.8301839417807741
  0.2471576788272074  0.7516234940673598  0.8322089986736358
  0.5855260020828652  0.7525144311176533  0.8328948016164830
  0.9162460411062128  0.7430084976072706  0.8283023580393731
  0.2490727006114710  0.0797564711886309  0.8301593607151787
  0.5786772841537839  0.0811152042596035  0.8317022997033092
  0.9177649779995321  0.0833749525451850  0.8295655385593292
  0.6644852854930079  0.3338860558302912  0.9995927438558496
  0.3277181824528199  0.6655378329185027  0.9951311903187730
  0.3365274456662419  0.0020880680161710  0.9989832350633208
  0.6594970677819276  0.3333741565977846  0.3311190518447376
  0.3389698818131706  0.6697482437182813  0.3410982235980811
  0.6643296935028360  0.6675287833273131  0.3338111133081014
  0.3328569998682980  0.9976045559748243  0.3345234631420837
  0.0008825831198038  0.3346160884983931  0.6704858784800223
  0.6702020083982774  0.3358546134193432  0.6686951935185377
  0.0004864433760474  0.6639853573007315  0.6659048080136074
  0.6642998506022124  0.6658307647133910  0.6667699937077742
  0.0020878882611441  0.0008160505188926  0.6660138873765220
  0.3309094365193346  0.9951979875416512  0.6640936327773588
  0.6643446953341510  0.0001818373448828  0.6651481759438553
  0.0925100403446208  0.9195359600529400  0.1713797146047327
  0.4192576206674730  0.2487623738860307  0.1680853742966022
  0.0827636544430277  0.5855297631866563  0.5033838922365987
  0.4194158294822472  0.5900571006533966  0.5020047868334032
  0.0865043667926031  0.9193613863017163  0.5057471630870864
  0.4176119169478127  0.9162511419433272  0.5021461130870080
  0.0847077216144001  0.5825678304992152  0.8288888191640993
  0.7479625838216677  0.5803319402381319  0.8260554828422002
  0.4103809921239474  0.9174232950438395  0.8319173432579916
  0.0790065972601042  0.2456600161778795  0.8254507858681777
  0.0030506085855464  0.3288079220646765  0.9959303881717005
  0.3256836014959745  0.3323592007264295  0.9993324310057972
  0.0029332561283226  0.6686462700644924  0.9984868683500139
  0.6644010408720362  0.6614707347457767  0.9948661947620252
  0.9984119705352725  0.9963292888144579  0.0012649790382753
  0.6619336512535909  0.0006717900755220  0.9988772214053583
  0.0027547395120209  0.3398143755845595  0.3353095078402717
  0.3398354799098655  0.3378519353203941  0.3348679889137287
  0.0041228353618479  0.6723095735758662  0.3422208194774328
  0.9989912246678117  0.9923302420986602  0.3322530308583325
  0.6648026501592739  0.9978060561579625  0.3342854617902233
  0.3327283720159002  0.3352300099011529  0.6657363805577887
  0.3365982268583778  0.6702345790797111  0.6647890106385859
  0.0889052841848184  0.5851676467671112  0.1691019378451202
  0.4138005492624117  0.5876021159248523  0.1679612913373987
  0.7490249621957119  0.5795651915174815  0.1678189975986513
  0.4105968033404466  0.9115013658500857  0.1632771466812173
  0.7495531921807341  0.9152363016445193  0.1646408217803312
  0.0833729681951993  0.2486785971949814  0.1671957686352030
  0.7444646304817013  0.2475516869366174  0.1651086518435179
  0.7508228374538888  0.5853521541636155  0.5003990587571536
  0.7544734513231148  0.9120203250990429  0.5040086249238058
  0.0834926240800868  0.2465839819370430  0.5012923237911977
  0.4199470643078627  0.2509773139555875  0.5008749132775137
  0.7489304243977060  0.2532351749703849  0.5022774422020717
  0.4126220920968819  0.5832192053783913  0.8362202409654884
  0.0841026943635441  0.9174164935711389  0.8311757914666060
  0.7514844701747947  0.9141897179013938  0.8292833715270760
  0.4216680404905091  0.2503686433729584  0.8323470890201108
  0.7463204727593862  0.2462631050915149  0.8320539348957681
  0.1272082947912025  0.4587790528225710  0.0809930919434620
  0.4547911631562940  0.4577625025271246  0.0839829282933096
  0.7821205066700401  0.4508738944089288  0.0756350290977892
  0.1251865843338038  0.8001135709457046  0.0893250296617012
  0.4465335921375058  0.7813774778421845  0.0751417175030227
  0.7923183205624440  0.7887984632738494  0.0819187170386186
  0.1254716349907028  0.1234057049297093  0.0820272921646321
  0.4468854748797213  0.1269531428777952  0.0825532362471932
  0.7929709846500117  0.1233297485740152  0.0837534133192648
  0.1242553498094381  0.4717779835967946  0.4242200344416460
  0.4592730769106410  0.4713237794727902  0.4251919273562308
  0.7795314475986785  0.4489697535900845  0.4118820801328837
  0.1257557714407511  0.8041243749107281  0.4241144854838907
  0.4495830925520750  0.7928218001547975  0.4218192245708394
  0.7853195793768606  0.7809038339856116  0.4129365617721490
  0.1273438757601681  0.1201120913519560  0.4187801853908866
  0.4496415035132983  0.1167971734576270  0.4112130552417881
  0.7918188600500500  0.1242667359745155  0.4191663304480855
  0.1127346641496061  0.4581845753512184  0.7470046004213486
  0.4592316760057713  0.4620059237198362  0.7499829589062301
  0.7833950035347712  0.4579399628093626  0.7483856378014693
  0.1156878351495081  0.7838369723226961  0.7422236640128475
  0.4574168752044940  0.8035483830453458  0.7563076023407476
  0.7848771213903376  0.7810005636418893  0.7430955634541618
  0.1154271948758137  0.1220980187322169  0.7496681931729938
  0.4477578715361119  0.1147465295151306  0.7423190847479830
  0.7830291152023534  0.1167786430246593  0.7435185488278506
  0.2929377331073653  0.6292562468889855  0.0769023225705396
  0.6237962455146473  0.6235404157375015  0.0820728293153294
  0.9605878096096845  0.6227428479807742  0.0818094351388794
  0.2937992340409750  0.9580089421924569  0.0734303310263300
  0.6209944737804278  0.9604821628208740  0.0849547744968433
  0.9701556557678828  0.9526510796776364  0.0911358523166399
  0.3018763376906222  0.2914336925983889  0.0927179135568963
  0.6243513045359776  0.2932165544629939  0.0765727437589021
  0.9588878186239427  0.2931699729532440  0.0826277284260115
  0.3039501652187795  0.6294265479807279  0.4206656926406396
  0.6276609398727331  0.6304010670301494  0.4137204581455265
  0.9649617217805400  0.6224314212759268  0.4241577231937583
  0.3065248190036343  0.9583665907165724  0.4193529329292573
  0.6271799316260598  0.9578865147051303  0.4215829390455355
  0.9671016261652809  0.9538700248756271  0.4239067483036649
  0.2931571599783851  0.2942290077054324  0.4172795513294929
  0.6263283951615932  0.2964929955160329  0.4133141732698888
  0.9591817887181762  0.2934587848792631  0.4177681573818433
  0.2906286684424870  0.6263989247912178  0.7480078351997719
  0.6354087897474088  0.6277373752052355  0.7504406081047961
  0.9699642724268642  0.6227340564416721  0.7477384070532125
  0.2989779092192251  0.9558668261933079  0.7468919148182565
  0.6290770230163147  0.9630882854255631  0.7461422290102320
  0.9609155388369359  0.9594143114386995  0.7426794251687596
  0.2906618904842233  0.2914016077598092  0.7496393424912853
  0.6264534958416164  0.2907620420344728  0.7420373237423519
  0.9653591709262983  0.2904268212001853  0.7483284798835967
  0.2083143437200690  0.3774906522278769  0.2518827877771912
  0.5386558089298390  0.3654296432834201  0.2495645604367454
  0.8713528986789143  0.3762288462367493  0.2494448688191611
  0.2211174177399116  0.7051754100701402  0.2587715584222749
  0.5474207721886089  0.7083429231101945  0.2575640282118385
  0.8770778897677829  0.7067917213006893  0.2500111279093389
  0.2141794434068132  0.0322220056691762  0.2512697142810509
  0.5382164898177848  0.0393216412541975  0.2498846402848756
  0.8745008751292787  0.0426013340874718  0.2525653906187557
  0.2061573242968109  0.3787599935719399  0.5829907850860749
  0.5520824201624421  0.3722195835373654  0.5884270929280788
  0.8834089238950682  0.3731546520080826  0.5902424460376210
  0.2007266293548966  0.7021919829341101  0.5770199791621167
  0.5423556626520991  0.7011495854881531  0.5874984158868699
  0.8839466880624656  0.7064409340051583  0.5895204311603806
  0.2088295991778040  0.0315546042625172  0.5859158686741068
  0.5411956826657587  0.0289327337142566  0.5826740546267573
  0.8822537265318076  0.0383083107164808  0.5883346395918849
  0.1960437690863444  0.3639949390461439  0.9078414176046863
  0.5502445027282263  0.3743825147672410  0.9195529559415547
  0.8755894765850627  0.3726515676731168  0.9133313483877359
  0.2068217901381288  0.6968085115400200  0.9129012861036543
  0.5393024025802049  0.7106521196887527  0.9154003022029258
  0.8674189669842605  0.6958497786287552  0.9073020089300599
  0.2170604979864876  0.0376118786434034  0.9199733950118301
  0.5298417122771539  0.0330873027260949  0.9106423826887706
  0.8767843970321891  0.0433516101722375  0.9158560254720740
  0.0416850449419996  0.5459346287918336  0.2521027259296105
  0.3749260557523613  0.5531798537145391  0.2585214588641023
  0.7031058072680807  0.5490056608105434  0.2565856793815513
  0.0508354588668922  0.8763984842746595  0.2463298173231578
  0.3735541908761562  0.8817744656415059  0.2563881777575858
  0.7074575233339218  0.8731499231307041  0.2493522128491961
  0.0450336231644428  0.2081846801214766  0.2539912223390601
  0.3774377351418750  0.2109481444355836  0.2455430966701257
  0.7015709832884340  0.2170611261834097  0.2549420973165724
  0.0374048579437911  0.5516926649752918  0.5809977938520419
  0.3820501331023038  0.5465795660981314  0.5790226151327929
  0.7088950067145845  0.5519010231929542  0.5901756685402617
  0.0421256195982807  0.8865752519761259  0.5845054684041813
  0.3758003039897062  0.8851044353798017  0.5838046679845519
  0.7041030850511518  0.8804628431666330  0.5896793227177497
  0.0405509959805386  0.2168728322110738  0.5913119874134907
  0.3758974063815614  0.2067089166738683  0.5840557960028718
  0.7042456751312400  0.2152860149579823  0.5884815765035114
  0.0439466336835466  0.5458951813258039  0.9079130468772476
  0.3674156211037953  0.5449822033075904  0.9205529455225587
  0.7112436102009241  0.5437010177437926  0.9070881551065995
  0.0400758172653184  0.8715603576290647  0.9137316662294168
  0.3705233500895844  0.8855248273516025  0.9140601047558334
  0.7130268158477975  0.8780559900643468  0.9187912088978862
  0.0475240243062558  0.2083562955695655  0.9085653988909641
  0.3715059556741664  0.2096414458934817  0.9138742555292012
  0.7003930887584602  0.2145966100533698  0.9202578314612353

  0.00000000E+00  0.00000000E+00  0.00000000E+00
  0.00000000E+00  0.00000000E+00  0.00000000E+00
  0.00000000E+00  0.00000000E+00  0.00000000E+00
  0.00000000E+00  0.00000000E+00  0.00000000E+00
  0.00000000E+00  0.00000000E+00  0.00000000E+00
  0.00000000E+00  0.00000000E+00  0.00000000E+00
  0.00000000E+00  0.00000000E+00  0.00000000E+00
  0.00000000E+00  0.00000000E+00  0.00000000E+00
  0.00000000E+00  0.00000000E+00  0.00000000E+00
  0.00000000E+00  0.00000000E+00  0.00000000E+00
  0.00000000E+00  0.00000000E+00  0.00000000E+00
  0.00000000E+00  0.00000000E+00  0.00000000E+00
  0.00000000E+00  0.00000000E+00  0.00000000E+00
  0.00000000E+00  0.00000000E+00  0.00000000E+00
  0.00000000E+00  0.00000000E+00  0.00000000E+00
  0.00000000E+00  0.00000000E+00  0.00000000E+00
  0.00000000E+00  0.00000000E+00  0.00000000E+00
  0.00000000E+00  0.00000000E+00  0.00000000E+00
  0.00000000E+00  0.00000000E+00  0.00000000E+00
  0.00000000E+00  0.00000000E+00  0.00000000E+00
  0.00000000E+00  0.00000000E+00  0.00000000E+00
  0.00000000E+00  0.00000000E+00  0.00000000E+00
  0.00000000E+00  0.00000000E+00  0.00000000E+00
  0.00000000E+00  0.00000000E+00  0.00000000E+00
  0.00000000E+00  0.00000000E+00  0.00000000E+00
  0.00000000E+00  0.00000000E+00  0.00000000E+00
  0.00000000E+00  0.00000000E+00  0.00000000E+00
  0.00000000E+00  0.00000000E+00  0.00000000E+00
  0.00000000E+00  0.00000000E+00  0.00000000E+00
  0.00000000E+00  0.00000000E+00  0.00000000E+00
  0.00000000E+00  0.00000000E+00  0.00000000E+00
  0.00000000E+00  0.00000000E+00  0.00000000E+00
  0.00000000E+00  0.00000000E+00  0.00000000E+00
  0.00000000E+00  0.00000000E+00  0.00000000E+00
  0.00000000E+00  0.00000000E+00  0.00000000E+00
  0.00000000E+00  0.00000000E+00  0.00000000E+00
  0.00000000E+00  0.00000000E+00  0.00000000E+00
  0.00000000E+00  0.00000000E+00  0.00000000E+00
  0.00000000E+00  0.00000000E+00  0.00000000E+00
  0.00000000E+00  0.00000000E+00  0.00000000E+00
  0.00000000E+00  0.00000000E+00  0.00000000E+00
  0.00000000E+00  0.00000000E+00  0.00000000E+00
  0.00000000E+00  0.00000000E+00  0.00000000E+00
  0.00000000E+00  0.00000000E+00  0.00000000E+00
  0.00000000E+00  0.00000000E+00  0.00000000E+00
  0.00000000E+00  0.00000000E+00  0.00000000E+00
  0.00000000E+00  0.00000000E+00  0.00000000E+00
  0.00000000E+00  0.00000000E+00  0.00000000E+00
  0.00000000E+00  0.00000000E+00  0.00000000E+00
  0.00000000E+00  0.00000000E+00  0.00000000E+00
  0.00000000E+00  0.00000000E+00  0.00000000E+00
  0.00000000E+00  0.00000000E+00  0.00000000E+00
  0.00000000E+00  0.00000000E+00  0.00000000E+00
  0.00000000E+00  0.00000000E+00  0.00000000E+00
  0.00000000E+00  0.00000000E+00  0.00000000E+00
  0.00000000E+00  0.00000000E+00  0.00000000E+00
  0.00000000E+00  0.00000000E+00  0.00000000E+00
  0.00000000E+00  0.00000000E+00  0.00000000E+00
  0.00000000E+00  0.00000000E+00  0.00000000E+00
  0.00000000E+00  0.00000000E+00  0.00000000E+00
  0.00000000E+00  0.00000000E+00  0.00000000E+00
  0.00000000E+00  0.00000000E+00  0.00000000E+00
  0.00000000E+00  0.00000000E+00  0.00000000E+00
  0.00000000E+00  0.00000000E+00  0.00000000E+00
  0.00000000E+00  0.00000000E+00  0.00000000E+00
  0.00000000E+00  0.00000000E+00  0.00000000E+00
  0.00000000E+00  0.00000000E+00  0.00000000E+00
  0.00000000E+00  0.00000000E+00  0.00000000E+00
  0.00000000E+00  0.00000000E+00  0.00000000E+00
  0.00000000E+00  0.00000000E+00  0.00000000E+00
  0.00000000E+00  0.00000000E+00  0.00000000E+00
  0.00000000E+00  0.00000000E+00  0.00000000E+00
  0.00000000E+00  0.00000000E+00  0.00000000E+00
  0.00000000E+00  0.00000000E+00  0.00000000E+00
  0.00000000E+00  0.00000000E+00  0.00000000E+00
  0.00000000E+00  0.00000000E+00  0.00000000E+00
  0.00000000E+00  0.00000000E+00  0.00000000E+00
  0.00000000E+00  0.00000000E+00  0.00000000E+00
  0.00000000E+00  0.00000000E+00  0.00000000E+00
  0.00000000E+00  0.00000000E+00  0.00000000E+00
  0.00000000E+00  0.00000000E+00  0.00000000E+00
  0.00000000E+00  0.00000000E+00  0.00000000E+00
  0.00000000E+00  0.00000000E+00  0.00000000E+00
  0.00000000E+00  0.00000000E+00  0.00000000E+00
  0.00000000E+00  0.00000000E+00  0.00000000E+00
  0.00000000E+00  0.00000000E+00  0.00000000E+00
  0.00000000E+00  0.00000000E+00  0.00000000E+00
  0.00000000E+00  0.00000000E+00  0.00000000E+00
  0.00000000E+00  0.00000000E+00  0.00000000E+00
  0.00000000E+00  0.00000000E+00  0.00000000E+00
  0.00000000E+00  0.00000000E+00  0.00000000E+00
  0.00000000E+00  0.00000000E+00  0.00000000E+00
  0.00000000E+00  0.00000000E+00  0.00000000E+00
  0.00000000E+00  0.00000000E+00  0.00000000E+00
  0.00000000E+00  0.00000000E+00  0.00000000E+00
  0.00000000E+00  0.00000000E+00  0.00000000E+00
  0.00000000E+00  0.00000000E+00  0.00000000E+00
  0.00000000E+00  0.00000000E+00  0.00000000E+00
  0.00000000E+00  0.00000000E+00  0.00000000E+00
  0.00000000E+00  0.00000000E+00  0.00000000E+00
  0.00000000E+00  0.00000000E+00  0.00000000E+00
  0.00000000E+00  0.00000000E+00  0.00000000E+00
  0.00000000E+00  0.00000000E+00  0.00000000E+00
  0.00000000E+00  0.00000000E+00  0.00000000E+00
  0.00000000E+00  0.00000000E+00  0.00000000E+00
  0.00000000E+00  0.00000000E+00  0.00000000E+00
  0.00000000E+00  0.00000000E+00  0.00000000E+00
  0.00000000E+00  0.00000000E+00  0.00000000E+00
  0.00000000E+00  0.00000000E+00  0.00000000E+00
  0.00000000E+00  0.00000000E+00  0.00000000E+00
  0.00000000E+00  0.00000000E+00  0.00000000E+00
  0.00000000E+00  0.00000000E+00  0.00000000E+00
  0.00000000E+00  0.00000000E+00  0.00000000E+00
  0.00000000E+00  0.00000000E+00  0.00000000E+00
  0.00000000E+00  0.00000000E+00  0.00000000E+00
  0.00000000E+00  0.00000000E+00  0.00000000E+00
  0.00000000E+00  0.00000000E+00  0.00000000E+00
  0.00000000E+00  0.00000000E+00  0.00000000E+00
  0.00000000E+00  0.00000000E+00  0.00000000E+00
  0.00000000E+00  0.00000000E+00  0.00000000E+00
  0.00000000E+00  0.00000000E+00  0.00000000E+00
  0.00000000E+00  0.00000000E+00  0.00000000E+00
  0.00000000E+00  0.00000000E+00  0.00000000E+00
  0.00000000E+00  0.00000000E+00  0.00000000E+00
  0.00000000E+00  0.00000000E+00  0.00000000E+00
  0.00000000E+00  0.00000000E+00  0.00000000E+00
  0.00000000E+00  0.00000000E+00  0.00000000E+00
  0.00000000E+00  0.00000000E+00  0.00000000E+00
  0.00000000E+00  0.00000000E+00  0.00000000E+00
  0.00000000E+00  0.00000000E+00  0.00000000E+00
  0.00000000E+00  0.00000000E+00  0.00000000E+00
  0.00000000E+00  0.00000000E+00  0.00000000E+00
  0.00000000E+00  0.00000000E+00  0.00000000E+00
  0.00000000E+00  0.00000000E+00  0.00000000E+00
  0.00000000E+00  0.00000000E+00  0.00000000E+00
  0.00000000E+00  0.00000000E+00  0.00000000E+00
  0.00000000E+00  0.00000000E+00  0.00000000E+00
  0.00000000E+00  0.00000000E+00  0.00000000E+00
  0.00000000E+00  0.00000000E+00  0.00000000E+00
  0.00000000E+00  0.00000000E+00  0.00000000E+00
  0.00000000E+00  0.00000000E+00  0.00000000E+00
  0.00000000E+00  0.00000000E+00  0.00000000E+00
  0.00000000E+00  0.00000000E+00  0.00000000E+00
  0.00000000E+00  0.00000000E+00  0.00000000E+00
  0.00000000E+00  0.00000000E+00  0.00000000E+00
  0.00000000E+00  0.00000000E+00  0.00000000E+00
  0.00000000E+00  0.00000000E+00  0.00000000E+00
  0.00000000E+00  0.00000000E+00  0.00000000E+00
  0.00000000E+00  0.00000000E+00  0.00000000E+00
  0.00000000E+00  0.00000000E+00  0.00000000E+00
  0.00000000E+00  0.00000000E+00  0.00000000E+00
  0.00000000E+00  0.00000000E+00  0.00000000E+00
  0.00000000E+00  0.00000000E+00  0.00000000E+00
  0.00000000E+00  0.00000000E+00  0.00000000E+00
  0.00000000E+00  0.00000000E+00  0.00000000E+00
  0.00000000E+00  0.00000000E+00  0.00000000E+00
  0.00000000E+00  0.00000000E+00  0.00000000E+00
  0.00000000E+00  0.00000000E+00  0.00000000E+00
  0.00000000E+00  0.00000000E+00  0.00000000E+00
  0.00000000E+00  0.00000000E+00  0.00000000E+00
  0.00000000E+00  0.00000000E+00  0.00000000E+00
  0.00000000E+00  0.00000000E+00  0.00000000E+00
  0.00000000E+00  0.00000000E+00  0.00000000E+00
  0.00000000E+00  0.00000000E+00  0.00000000E+00
  0.00000000E+00  0.00000000E+00  0.00000000E+00
  0.00000000E+00  0.00000000E+00  0.00000000E+00
  0.00000000E+00  0.00000000E+00  0.00000000E+00
  0.00000000E+00  0.00000000E+00  0.00000000E+00
  0.00000000E+00  0.00000000E+00  0.00000000E+00
  0.00000000E+00  0.00000000E+00  0.00000000E+00
  0.00000000E+00  0.00000000E+00  0.00000000E+00
  0.00000000E+00  0.00000000E+00  0.00000000E+00
  0.00000000E+00  0.00000000E+00  0.00000000E+00
  0.00000000E+00  0.00000000E+00  0.00000000E+00
  0.00000000E+00  0.00000000E+00  0.00000000E+00
  0.00000000E+00  0.00000000E+00  0.00000000E+00
  0.00000000E+00  0.00000000E+00  0.00000000E+00
  0.00000000E+00  0.00000000E+00  0.00000000E+00
  0.00000000E+00  0.00000000E+00  0.00000000E+00
  0.00000000E+00  0.00000000E+00  0.00000000E+00
  0.00000000E+00  0.00000000E+00  0.00000000E+00
  0.00000000E+00  0.00000000E+00  0.00000000E+00
  0.00000000E+00  0.00000000E+00  0.00000000E+00
  0.00000000E+00  0.00000000E+00  0.00000000E+00
  0.00000000E+00  0.00000000E+00  0.00000000E+00
  0.00000000E+00  0.00000000E+00  0.00000000E+00
  0.00000000E+00  0.00000000E+00  0.00000000E+00
  0.00000000E+00  0.00000000E+00  0.00000000E+00
  0.00000000E+00  0.00000000E+00  0.00000000E+00
  0.00000000E+00  0.00000000E+00  0.00000000E+00
  0.00000000E+00  0.00000000E+00  0.00000000E+00
  0.00000000E+00  0.00000000E+00  0.00000000E+00
  0.00000000E+00  0.00000000E+00  0.00000000E+00
  0.00000000E+00  0.00000000E+00  0.00000000E+00
  0.00000000E+00  0.00000000E+00  0.00000000E+00
  0.00000000E+00  0.00000000E+00  0.00000000E+00
  0.00000000E+00  0.00000000E+00  0.00000000E+00
  0.00000000E+00  0.00000000E+00  0.00000000E+00
  0.00000000E+00  0.00000000E+00  0.00000000E+00
  0.00000000E+00  0.00000000E+00  0.00000000E+00
  0.00000000E+00  0.00000000E+00  0.00000000E+00
  0.00000000E+00  0.00000000E+00  0.00000000E+00
  0.00000000E+00  0.00000000E+00  0.00000000E+00
  0.00000000E+00  0.00000000E+00  0.00000000E+00
  0.00000000E+00  0.00000000E+00  0.00000000E+00
  0.00000000E+00  0.00000000E+00  0.00000000E+00
  0.00000000E+00  0.00000000E+00  0.00000000E+00
  0.00000000E+00  0.00000000E+00  0.00000000E+00
  0.00000000E+00  0.00000000E+00  0.00000000E+00
  0.00000000E+00  0.00000000E+00  0.00000000E+00
  0.00000000E+00  0.00000000E+00  0.00000000E+00
  0.00000000E+00  0.00000000E+00  0.00000000E+00
  0.00000000E+00  0.00000000E+00  0.00000000E+00
  0.00000000E+00  0.00000000E+00  0.00000000E+00
  0.00000000E+00  0.00000000E+00  0.00000000E+00
  0.00000000E+00  0.00000000E+00  0.00000000E+00
