In42 Ga12 Cu54 Se108                    
   1.0000000000000000     
    15.9986357993700956   -0.0031917901473838   -7.1017463923577271
    -3.1481636797812542   15.6880135777104339   -7.0981098442383654
    -0.0310887937602163   -0.0451914221895742   21.5034959967167154
   In   Ga   Cu   Se
    42    12    54   108
Direct
  0.1659471258964373  0.5008397007395402  0.0000621100971543
  0.5029369492214641  0.4997358147990454  0.0015792619884749
  0.8348663067573625  0.4991224401166434  0.0021093875262750
  0.1664777083740603  0.8335611315963050  0.0004160765064611
  0.5009745352181909  0.8336281676814536  0.0004496694767795
  0.1650121876688786  0.1660217272219242  0.0000914534604277
  0.5019120322224850  0.1687030930681885  0.0018993807268615
  0.8338665054949885  0.1701230327616159  0.0027506049761428
  0.1656244768372588  0.5014794428115010  0.3359339884201660
  0.5021167663106922  0.4992384545716249  0.3339077116649420
  0.8333545197410501  0.5006389308144819  0.3325507786574207
  0.1681154677123473  0.8314811204164556  0.3355900470848141
  0.5002516380619255  0.8366100056028145  0.3351894140352769
  0.5024710717679568  0.1682746707950642  0.3370965019440177
  0.8330318382738824  0.1682829156032355  0.3338498696655137
  0.1664613029917561  0.5003904348858939  0.6643539862651693
  0.8299844721554948  0.4987520446819076  0.6642431054274596
  0.1656686279657151  0.8303102903414441  0.6627451830614106
  0.4971175630359923  0.8318051694726520  0.6643583568237332
  0.1663119005701006  0.1661754778144342  0.6656944705027641
  0.5008809573805095  0.1642792860235858  0.6638405870695010
  0.8295309974608358  0.1662099303872537  0.6641487480470971
  0.2502598755793883  0.4171202339890314  0.1677646666557777
  0.2500409130129313  0.7492645663958655  0.1670960581819685
  0.5875489638395806  0.7504427241377201  0.1691021905215280
  0.9154928038467318  0.7519261973861902  0.1678717952305391
  0.2488314989087996  0.0864773366451885  0.1694272125788885
  0.5848847444210534  0.0842065441464896  0.1675240030781779
  0.9176145759702692  0.0818896819215240  0.1674763210306267
  0.9164771764590469  0.4171686999357220  0.4998677552672675
  0.5850213843096128  0.7492919886663358  0.5010869862499945
  0.2491475509016468  0.0837704367062528  0.4984414108135340
  0.9160788773979007  0.0816834577389329  0.4979577839534954
  0.2505380379861180  0.4166273563140024  0.8329547101881616
  0.5832868344204840  0.4171758391083884  0.8309178739204413
  0.9157938867381432  0.4170387778063755  0.8326059002557500
  0.2503886330523883  0.7495659372244035  0.8327124595255881
  0.5850367692061624  0.7475555642028837  0.8324053869283290
  0.9135209213059454  0.7514618628336791  0.8321203549152045
  0.2497233240133951  0.0830483232775094  0.8329974030189149
  0.5835214326105032  0.0825948517362178  0.8328834021332696
  0.9143993988237611  0.0804794771714583  0.8315820542857963
  0.8328662442290664  0.8330048991195156  0.9996066803592853
  0.8359106397579410  0.8326645307542222  0.3355652854009534
  0.1663688884456676  0.1686456533396665  0.3353412134482383
  0.4984971130283427  0.4980166643966726  0.6618068343421015
  0.8323292640565612  0.8319279487253297  0.6637905855770754
  0.5838018445279474  0.4174967327401191  0.1673662712733801
  0.9179906150884847  0.4178838621789538  0.1687739500610093
  0.2510069223438194  0.4138962309744443  0.4996807018414984
  0.5816244266358837  0.4195249011515969  0.5005802816826517
  0.2510403107027628  0.7490653448414903  0.4995813817156929
  0.9144528701961150  0.7511033099260231  0.4996760580079069
  0.5827545903902518  0.0823187437644393  0.4996634554098804
  0.9991871653621729  0.3326817827347455  0.0026376420374277
  0.3364266036074852  0.3343801440534619  0.0018317787325017
  0.6692142900399105  0.3375506330693341  0.0048347395289383
  0.9957556331153086  0.6698212395205729  0.9994328494018703
  0.3355523348792673  0.6664816844904280  0.0002115962499616
  0.6692874069805086  0.6687535702684286  0.0005392620739570
  0.9976978136698307  0.9985257320853549  0.0009043161706686
  0.3316794791069455  0.0000599305442677  0.0002927548601690
  0.6710665220847289  0.9972931216902410  0.0002945975458744
  0.0055587857995789  0.3345393503181882  0.3335340733394432
  0.3345181381274358  0.3333209151757615  0.3386095584635171
  0.6644467740017674  0.3368749697281856  0.3346610194943977
  0.9977257395398311  0.6672293840656067  0.3361576152412482
  0.3330918199299191  0.6668661230065496  0.3366240791688000
  0.6708634853946691  0.6681516982768230  0.3336431786261684
  0.0004504772659431  0.9998803052119243  0.3347663073190787
  0.3334288986961553  0.0044936285490422  0.3353292323095829
  0.6691989495379858  0.9983225829936373  0.3360349815268222
  0.0000925368034999  0.3312879282409824  0.6645953115999816
  0.3341509594326908  0.3361117338696076  0.6644451091311154
  0.6608274518961608  0.3330828661027212  0.6608150154905132
  0.9942410558196073  0.6692248181189768  0.6635466100569545
  0.3348206274140679  0.6620495377519546  0.6616738922323222
  0.6655756893272269  0.6639311334218263  0.6641896153109528
  0.9976404304423525  0.9950682051203827  0.6649126360817732
  0.3299514329794704  0.9966636482724383  0.6623114775909471
  0.6673771933077646  0.9970719558345493  0.6635961166104565
  0.0804573380606755  0.5818606758168272  0.1689414491673631
  0.4194939624896747  0.5821842581719210  0.1687124250656851
  0.7525134311406205  0.5836588747118512  0.1699206624531016
  0.0835480229717618  0.9204423645437814  0.1692957466684177
  0.4181361910419454  0.9185998978404655  0.1682576001347087
  0.7518895572194424  0.9140250640843846  0.1689507570168587
  0.0842899433510240  0.2530409575913808  0.1705849303407945
  0.4183499235459678  0.2514494618955538  0.1681991098081141
  0.7526769532147313  0.2563607252588511  0.1695496519707973
  0.0851101518440913  0.5853951083641107  0.5001931451472075
  0.4139084582421830  0.5794746235823922  0.4999370197675148
  0.7516334426380809  0.5865572376003811  0.5019163974670562
  0.0797779178283307  0.9103095648191584  0.4970547919523796
  0.4174417004635487  0.9166193014115009  0.5006805362001359
  0.7514086675924787  0.9133525866724312  0.4984759696766474
  0.0855388415858727  0.2507240087678753  0.4971981920117798
  0.4170541368608269  0.2529214253281751  0.4992057719789642
  0.7445788937682707  0.2515980171206706  0.4992608301997308
  0.0814972234435984  0.5834752885644718  0.8313802960943875
  0.4177561698053651  0.5809881532295051  0.8297335353538884
  0.7465289025387847  0.5839914068265202  0.8315414487396637
  0.0798445086825907  0.9146539604973469  0.8301711118263171
  0.4174220017619419  0.9169912129584432  0.8331328776269658
  0.7505523796152218  0.9132808390652372  0.8308004374076603
  0.0825141237702809  0.2490276369051330  0.8329705347303076
  0.4176352030003798  0.2488976762797961  0.8309231034184705
  0.7486844206383694  0.2503873774878684  0.8332273290690395
  0.1135337271873382  0.4585850385411661  0.0840941473193908
  0.4557227823507333  0.4568672914691660  0.0886575971312880
  0.7901100904764036  0.4581901558799899  0.0910049652328908
  0.1138074426248394  0.7936447587781643  0.0850598517492003
  0.4502419742393613  0.7926282845531318  0.0856366006425660
  0.7835912707326287  0.7946006406019137  0.0790692129016008
  0.1111891741098106  0.1258257869099211  0.0842436450756026
  0.4473128899935190  0.1248597700581513  0.0837338678981396
  0.7815206915835375  0.1272273383004929  0.0861208786452181
  0.1231024731145425  0.4572985824377795  0.4239301269577567
  0.4533846207605166  0.4563008816206349  0.4202808712616388
  0.7811670782014701  0.4604259207495787  0.4172201423745605
  0.1211940185970590  0.7861131126423260  0.4209129785308861
  0.4486970948180229  0.7913145184798580  0.4176574937748683
  0.7898799132015029  0.7912123462972218  0.4159088521178163
  0.1154977152840786  0.1263128251675028  0.4116041753141033
  0.4547184174328862  0.1245502346637508  0.4228802167108299
  0.7799749812567640  0.1271481045159391  0.4175254257810366
  0.1139219435087426  0.4578862244853781  0.7482498015542518
  0.4512299517424267  0.4602020571724381  0.7426175396201913
  0.7782626911709372  0.4575494208109632  0.7485522007407610
  0.1139439479684370  0.7905558365370666  0.7480581981677474
  0.4478470210226888  0.7899379610158519  0.7496689829856606
  0.7807016275023955  0.7909026214286499  0.7411783316930922
  0.1117885780905326  0.1223124286646922  0.7480542667615993
  0.4463513873454161  0.1215617737688746  0.7463832889122770
  0.7792238563235401  0.1247211377338644  0.7493474497016237
  0.3048660865553288  0.6241753291666967  0.0841450334030114
  0.6398087943485962  0.6254325705386634  0.0841763552373536
  0.9691906283049576  0.6265148731763475  0.0849082666965089
  0.3020373121101017  0.9604498793855711  0.0856111229721606
  0.6385796233203394  0.9577690456435946  0.0852828145375142
  0.9618163454019850  0.9506314981653006  0.0793461390561134
  0.3021778357442386  0.2911107314705035  0.0835953018065538
  0.6344960858178013  0.3003075532709190  0.0894639413471268
  0.9683024279728301  0.2996109984700297  0.0911693047891475
  0.3004754129798926  0.6300207823896145  0.4221100600224901
  0.6372800292688225  0.6258082557685967  0.4160564416494523
  0.9655963559139735  0.6319979453716442  0.4230096948905810
  0.3030072524597216  0.9580973201967851  0.4168113575078891
  0.6351585717684571  0.9645869692301332  0.4230012083501862
  0.9637118566253804  0.9507204493010093  0.4123726437410653
  0.2930671417038440  0.2903404363522384  0.4171725155415160
  0.6318414158415990  0.3020682880774004  0.4217523552262392
  0.9693629769169050  0.2932379335320121  0.4154441303013101
  0.3031636105794959  0.6250229799601001  0.7480492639463492
  0.6272119308217796  0.6166852296132603  0.7422497898145011
  0.9658623065566019  0.6255606974850707  0.7478008952290125
  0.3015679742788393  0.9572342578463235  0.7483884050222969
  0.6347478405931213  0.9564719735964360  0.7478065482699279
  0.9602979780524024  0.9499865002381043  0.7443407223409366
  0.3032721400904066  0.2922669014017103  0.7476746913295287
  0.6356137862052975  0.2913685183958066  0.7475028343926979
  0.9677693308185340  0.2907231547501894  0.7484038250754352
  0.2108441676792907  0.3666316079724936  0.2538211014482030
  0.5436794121821933  0.3669318029504538  0.2450599266412610
  0.8819185246021632  0.3685983488889519  0.2488494821070262
  0.2078861193706487  0.6950345424032633  0.2502705825851166
  0.5434508503283126  0.6998141371140250  0.2525445187049229
  0.8736415790970398  0.7047322989483717  0.2556661817997679
  0.2062778248512060  0.0404973380420657  0.2569189267513607
  0.5447597575484480  0.0319409354606464  0.2525673165164974
  0.8751007680691387  0.0311135544340573  0.2516057234378053
  0.2102810948832214  0.3665970808053629  0.5782997638660206
  0.5396384762913939  0.3731971072516700  0.5803196842625553
  0.8735839164907304  0.3627437617878044  0.5823518518260897
  0.2129983539774614  0.6986779995119363  0.5780722398067724
  0.5391444712389486  0.6951643036347050  0.5818920288964762
  0.8728222025177672  0.7071670179924965  0.5815130980280259
  0.2039844769344512  0.0281904359323093  0.5794841936806989
  0.5446607844593174  0.0304868079804237  0.5778417693046833
  0.8748022643942193  0.0308294157502189  0.5827509781604263
  0.2091008768101403  0.3639139846970778  0.9171776974373813
  0.5436121814034536  0.3640402347902665  0.9158633091614874
  0.8753291034029118  0.3634020891281935  0.9167256435658473
  0.2087493291393940  0.6969880327528841  0.9167156252939677
  0.5421877024455242  0.6967575788226483  0.9164505358177806
  0.8690877094718132  0.7040714369577472  0.9184293376529951
  0.2057083322912305  0.0294556762547060  0.9152683289161772
  0.5442561030324740  0.0307720739028170  0.9184772752205248
  0.8734539904713827  0.0317706159707285  0.9177607680932596
  0.0339660959644092  0.5475340064700660  0.2492354958229726
  0.3757709579759094  0.5533651252797469  0.2526222690782944
  0.7018617343489595  0.5455654164265837  0.2458389360651196
  0.0435171135215526  0.8856695499337874  0.2523690880561986
  0.3736204869220074  0.8879903279531192  0.2508063242185088
  0.7179242145300009  0.8834579961043403  0.2576681257627271
  0.0484451670828321  0.2153489811050093  0.2544677544607694
  0.3767696256618791  0.2210125718611451  0.2528377372374493
  0.7083899595916705  0.2228963560163137  0.2516597946673684
  0.0404937573476047  0.5550878829305361  0.5831275756909946
  0.3737353472140299  0.5396614481463118  0.5807159865650391
  0.7013530539109922  0.5460528342275168  0.5772488835028113
  0.0338773046526484  0.8774041525461769  0.5780396130751413
  0.3677113327844026  0.8784599754219329  0.5773227498985065
  0.7154324646539223  0.8820745919774495  0.5857774827321833
  0.0423478832185182  0.2182882294803505  0.5798687531616267
  0.3757749930948151  0.2192531671722335  0.5824036165027593
  0.6984382516886072  0.2123730643685704  0.5773469963478277
  0.0401052219710678  0.5549993867284044  0.9167827083529403
  0.3777629399149021  0.5519191450756225  0.9159159829591417
  0.7099643330780623  0.5522263403487742  0.9176849832145564
  0.0408388966821960  0.8861904068424025  0.9164175540296000
  0.3751926299777040  0.8866300426752431  0.9171600128442350
  0.7157306018765937  0.8813701117547197  0.9187510475947818
  0.0392686794585799  0.2182909551094241  0.9163771312942686
  0.3759586791864322  0.2192690633916641  0.9157240059937237
  0.7073550436095886  0.2211652350600133  0.9181005810637188

  0.00000000E+00  0.00000000E+00  0.00000000E+00
  0.00000000E+00  0.00000000E+00  0.00000000E+00
  0.00000000E+00  0.00000000E+00  0.00000000E+00
  0.00000000E+00  0.00000000E+00  0.00000000E+00
  0.00000000E+00  0.00000000E+00  0.00000000E+00
  0.00000000E+00  0.00000000E+00  0.00000000E+00
  0.00000000E+00  0.00000000E+00  0.00000000E+00
  0.00000000E+00  0.00000000E+00  0.00000000E+00
  0.00000000E+00  0.00000000E+00  0.00000000E+00
  0.00000000E+00  0.00000000E+00  0.00000000E+00
  0.00000000E+00  0.00000000E+00  0.00000000E+00
  0.00000000E+00  0.00000000E+00  0.00000000E+00
  0.00000000E+00  0.00000000E+00  0.00000000E+00
  0.00000000E+00  0.00000000E+00  0.00000000E+00
  0.00000000E+00  0.00000000E+00  0.00000000E+00
  0.00000000E+00  0.00000000E+00  0.00000000E+00
  0.00000000E+00  0.00000000E+00  0.00000000E+00
  0.00000000E+00  0.00000000E+00  0.00000000E+00
  0.00000000E+00  0.00000000E+00  0.00000000E+00
  0.00000000E+00  0.00000000E+00  0.00000000E+00
  0.00000000E+00  0.00000000E+00  0.00000000E+00
  0.00000000E+00  0.00000000E+00  0.00000000E+00
  0.00000000E+00  0.00000000E+00  0.00000000E+00
  0.00000000E+00  0.00000000E+00  0.00000000E+00
  0.00000000E+00  0.00000000E+00  0.00000000E+00
  0.00000000E+00  0.00000000E+00  0.00000000E+00
  0.00000000E+00  0.00000000E+00  0.00000000E+00
  0.00000000E+00  0.00000000E+00  0.00000000E+00
  0.00000000E+00  0.00000000E+00  0.00000000E+00
  0.00000000E+00  0.00000000E+00  0.00000000E+00
  0.00000000E+00  0.00000000E+00  0.00000000E+00
  0.00000000E+00  0.00000000E+00  0.00000000E+00
  0.00000000E+00  0.00000000E+00  0.00000000E+00
  0.00000000E+00  0.00000000E+00  0.00000000E+00
  0.00000000E+00  0.00000000E+00  0.00000000E+00
  0.00000000E+00  0.00000000E+00  0.00000000E+00
  0.00000000E+00  0.00000000E+00  0.00000000E+00
  0.00000000E+00  0.00000000E+00  0.00000000E+00
  0.00000000E+00  0.00000000E+00  0.00000000E+00
  0.00000000E+00  0.00000000E+00  0.00000000E+00
  0.00000000E+00  0.00000000E+00  0.00000000E+00
  0.00000000E+00  0.00000000E+00  0.00000000E+00
  0.00000000E+00  0.00000000E+00  0.00000000E+00
  0.00000000E+00  0.00000000E+00  0.00000000E+00
  0.00000000E+00  0.00000000E+00  0.00000000E+00
  0.00000000E+00  0.00000000E+00  0.00000000E+00
  0.00000000E+00  0.00000000E+00  0.00000000E+00
  0.00000000E+00  0.00000000E+00  0.00000000E+00
  0.00000000E+00  0.00000000E+00  0.00000000E+00
  0.00000000E+00  0.00000000E+00  0.00000000E+00
  0.00000000E+00  0.00000000E+00  0.00000000E+00
  0.00000000E+00  0.00000000E+00  0.00000000E+00
  0.00000000E+00  0.00000000E+00  0.00000000E+00
  0.00000000E+00  0.00000000E+00  0.00000000E+00
  0.00000000E+00  0.00000000E+00  0.00000000E+00
  0.00000000E+00  0.00000000E+00  0.00000000E+00
  0.00000000E+00  0.00000000E+00  0.00000000E+00
  0.00000000E+00  0.00000000E+00  0.00000000E+00
  0.00000000E+00  0.00000000E+00  0.00000000E+00
  0.00000000E+00  0.00000000E+00  0.00000000E+00
  0.00000000E+00  0.00000000E+00  0.00000000E+00
  0.00000000E+00  0.00000000E+00  0.00000000E+00
  0.00000000E+00  0.00000000E+00  0.00000000E+00
  0.00000000E+00  0.00000000E+00  0.00000000E+00
  0.00000000E+00  0.00000000E+00  0.00000000E+00
  0.00000000E+00  0.00000000E+00  0.00000000E+00
  0.00000000E+00  0.00000000E+00  0.00000000E+00
  0.00000000E+00  0.00000000E+00  0.00000000E+00
  0.00000000E+00  0.00000000E+00  0.00000000E+00
  0.00000000E+00  0.00000000E+00  0.00000000E+00
  0.00000000E+00  0.00000000E+00  0.00000000E+00
  0.00000000E+00  0.00000000E+00  0.00000000E+00
  0.00000000E+00  0.00000000E+00  0.00000000E+00
  0.00000000E+00  0.00000000E+00  0.00000000E+00
  0.00000000E+00  0.00000000E+00  0.00000000E+00
  0.00000000E+00  0.00000000E+00  0.00000000E+00
  0.00000000E+00  0.00000000E+00  0.00000000E+00
  0.00000000E+00  0.00000000E+00  0.00000000E+00
  0.00000000E+00  0.00000000E+00  0.00000000E+00
  0.00000000E+00  0.00000000E+00  0.00000000E+00
  0.00000000E+00  0.00000000E+00  0.00000000E+00
  0.00000000E+00  0.00000000E+00  0.00000000E+00
  0.00000000E+00  0.00000000E+00  0.00000000E+00
  0.00000000E+00  0.00000000E+00  0.00000000E+00
  0.00000000E+00  0.00000000E+00  0.00000000E+00
  0.00000000E+00  0.00000000E+00  0.00000000E+00
  0.00000000E+00  0.00000000E+00  0.00000000E+00
  0.00000000E+00  0.00000000E+00  0.00000000E+00
  0.00000000E+00  0.00000000E+00  0.00000000E+00
  0.00000000E+00  0.00000000E+00  0.00000000E+00
  0.00000000E+00  0.00000000E+00  0.00000000E+00
  0.00000000E+00  0.00000000E+00  0.00000000E+00
  0.00000000E+00  0.00000000E+00  0.00000000E+00
  0.00000000E+00  0.00000000E+00  0.00000000E+00
  0.00000000E+00  0.00000000E+00  0.00000000E+00
  0.00000000E+00  0.00000000E+00  0.00000000E+00
  0.00000000E+00  0.00000000E+00  0.00000000E+00
  0.00000000E+00  0.00000000E+00  0.00000000E+00
  0.00000000E+00  0.00000000E+00  0.00000000E+00
  0.00000000E+00  0.00000000E+00  0.00000000E+00
  0.00000000E+00  0.00000000E+00  0.00000000E+00
  0.00000000E+00  0.00000000E+00  0.00000000E+00
  0.00000000E+00  0.00000000E+00  0.00000000E+00
  0.00000000E+00  0.00000000E+00  0.00000000E+00
  0.00000000E+00  0.00000000E+00  0.00000000E+00
  0.00000000E+00  0.00000000E+00  0.00000000E+00
  0.00000000E+00  0.00000000E+00  0.00000000E+00
  0.00000000E+00  0.00000000E+00  0.00000000E+00
  0.00000000E+00  0.00000000E+00  0.00000000E+00
  0.00000000E+00  0.00000000E+00  0.00000000E+00
  0.00000000E+00  0.00000000E+00  0.00000000E+00
  0.00000000E+00  0.00000000E+00  0.00000000E+00
  0.00000000E+00  0.00000000E+00  0.00000000E+00
  0.00000000E+00  0.00000000E+00  0.00000000E+00
  0.00000000E+00  0.00000000E+00  0.00000000E+00
  0.00000000E+00  0.00000000E+00  0.00000000E+00
  0.00000000E+00  0.00000000E+00  0.00000000E+00
  0.00000000E+00  0.00000000E+00  0.00000000E+00
  0.00000000E+00  0.00000000E+00  0.00000000E+00
  0.00000000E+00  0.00000000E+00  0.00000000E+00
  0.00000000E+00  0.00000000E+00  0.00000000E+00
  0.00000000E+00  0.00000000E+00  0.00000000E+00
  0.00000000E+00  0.00000000E+00  0.00000000E+00
  0.00000000E+00  0.00000000E+00  0.00000000E+00
  0.00000000E+00  0.00000000E+00  0.00000000E+00
  0.00000000E+00  0.00000000E+00  0.00000000E+00
  0.00000000E+00  0.00000000E+00  0.00000000E+00
  0.00000000E+00  0.00000000E+00  0.00000000E+00
  0.00000000E+00  0.00000000E+00  0.00000000E+00
  0.00000000E+00  0.00000000E+00  0.00000000E+00
  0.00000000E+00  0.00000000E+00  0.00000000E+00
  0.00000000E+00  0.00000000E+00  0.00000000E+00
  0.00000000E+00  0.00000000E+00  0.00000000E+00
  0.00000000E+00  0.00000000E+00  0.00000000E+00
  0.00000000E+00  0.00000000E+00  0.00000000E+00
  0.00000000E+00  0.00000000E+00  0.00000000E+00
  0.00000000E+00  0.00000000E+00  0.00000000E+00
  0.00000000E+00  0.00000000E+00  0.00000000E+00
  0.00000000E+00  0.00000000E+00  0.00000000E+00
  0.00000000E+00  0.00000000E+00  0.00000000E+00
  0.00000000E+00  0.00000000E+00  0.00000000E+00
  0.00000000E+00  0.00000000E+00  0.00000000E+00
  0.00000000E+00  0.00000000E+00  0.00000000E+00
  0.00000000E+00  0.00000000E+00  0.00000000E+00
  0.00000000E+00  0.00000000E+00  0.00000000E+00
  0.00000000E+00  0.00000000E+00  0.00000000E+00
  0.00000000E+00  0.00000000E+00  0.00000000E+00
  0.00000000E+00  0.00000000E+00  0.00000000E+00
  0.00000000E+00  0.00000000E+00  0.00000000E+00
  0.00000000E+00  0.00000000E+00  0.00000000E+00
  0.00000000E+00  0.00000000E+00  0.00000000E+00
  0.00000000E+00  0.00000000E+00  0.00000000E+00
  0.00000000E+00  0.00000000E+00  0.00000000E+00
  0.00000000E+00  0.00000000E+00  0.00000000E+00
  0.00000000E+00  0.00000000E+00  0.00000000E+00
  0.00000000E+00  0.00000000E+00  0.00000000E+00
  0.00000000E+00  0.00000000E+00  0.00000000E+00
  0.00000000E+00  0.00000000E+00  0.00000000E+00
  0.00000000E+00  0.00000000E+00  0.00000000E+00
  0.00000000E+00  0.00000000E+00  0.00000000E+00
  0.00000000E+00  0.00000000E+00  0.00000000E+00
  0.00000000E+00  0.00000000E+00  0.00000000E+00
  0.00000000E+00  0.00000000E+00  0.00000000E+00
  0.00000000E+00  0.00000000E+00  0.00000000E+00
  0.00000000E+00  0.00000000E+00  0.00000000E+00
  0.00000000E+00  0.00000000E+00  0.00000000E+00
  0.00000000E+00  0.00000000E+00  0.00000000E+00
  0.00000000E+00  0.00000000E+00  0.00000000E+00
  0.00000000E+00  0.00000000E+00  0.00000000E+00
  0.00000000E+00  0.00000000E+00  0.00000000E+00
  0.00000000E+00  0.00000000E+00  0.00000000E+00
  0.00000000E+00  0.00000000E+00  0.00000000E+00
  0.00000000E+00  0.00000000E+00  0.00000000E+00
  0.00000000E+00  0.00000000E+00  0.00000000E+00
  0.00000000E+00  0.00000000E+00  0.00000000E+00
  0.00000000E+00  0.00000000E+00  0.00000000E+00
  0.00000000E+00  0.00000000E+00  0.00000000E+00
  0.00000000E+00  0.00000000E+00  0.00000000E+00
  0.00000000E+00  0.00000000E+00  0.00000000E+00
  0.00000000E+00  0.00000000E+00  0.00000000E+00
  0.00000000E+00  0.00000000E+00  0.00000000E+00
  0.00000000E+00  0.00000000E+00  0.00000000E+00
  0.00000000E+00  0.00000000E+00  0.00000000E+00
  0.00000000E+00  0.00000000E+00  0.00000000E+00
  0.00000000E+00  0.00000000E+00  0.00000000E+00
  0.00000000E+00  0.00000000E+00  0.00000000E+00
  0.00000000E+00  0.00000000E+00  0.00000000E+00
  0.00000000E+00  0.00000000E+00  0.00000000E+00
  0.00000000E+00  0.00000000E+00  0.00000000E+00
  0.00000000E+00  0.00000000E+00  0.00000000E+00
  0.00000000E+00  0.00000000E+00  0.00000000E+00
  0.00000000E+00  0.00000000E+00  0.00000000E+00
  0.00000000E+00  0.00000000E+00  0.00000000E+00
  0.00000000E+00  0.00000000E+00  0.00000000E+00
  0.00000000E+00  0.00000000E+00  0.00000000E+00
  0.00000000E+00  0.00000000E+00  0.00000000E+00
  0.00000000E+00  0.00000000E+00  0.00000000E+00
  0.00000000E+00  0.00000000E+00  0.00000000E+00
  0.00000000E+00  0.00000000E+00  0.00000000E+00
  0.00000000E+00  0.00000000E+00  0.00000000E+00
  0.00000000E+00  0.00000000E+00  0.00000000E+00
  0.00000000E+00  0.00000000E+00  0.00000000E+00
  0.00000000E+00  0.00000000E+00  0.00000000E+00
  0.00000000E+00  0.00000000E+00  0.00000000E+00
  0.00000000E+00  0.00000000E+00  0.00000000E+00
  0.00000000E+00  0.00000000E+00  0.00000000E+00
  0.00000000E+00  0.00000000E+00  0.00000000E+00
  0.00000000E+00  0.00000000E+00  0.00000000E+00
  0.00000000E+00  0.00000000E+00  0.00000000E+00
  0.00000000E+00  0.00000000E+00  0.00000000E+00
  0.00000000E+00  0.00000000E+00  0.00000000E+00
  0.00000000E+00  0.00000000E+00  0.00000000E+00
  0.00000000E+00  0.00000000E+00  0.00000000E+00
  0.00000000E+00  0.00000000E+00  0.00000000E+00
  0.00000000E+00  0.00000000E+00  0.00000000E+00
  0.00000000E+00  0.00000000E+00  0.00000000E+00
