Ga54 Cu36 Ag18 Se108                    
   1.0000000000000000     
    15.7916421143439276   -0.0012104845403788   -7.1830975789290887
    -3.2626593618482835   15.4623803622426479   -7.1794350596676697
     0.0044313699636009   -0.0003624426712635   20.9658872693736598
   Ga   Cu   Ag   Se
    54    36    18   108
Direct
  0.1710721992248381  0.4946710760449236  0.0030895243757456
  0.4982346885504469  0.4996501051860704  0.0006898866993126
  0.8328695003722117  0.4997876951243967  0.0005669822027414
  0.1666316935297587  0.8390788365165633  0.0023191213461118
  0.5068349631445628  0.8371881462425108  0.0026454805467040
  0.8303807280425488  0.8374864739726888  0.0032905247891790
  0.1667302215642223  0.1685667323946589  0.0008196747927087
  0.5029842881397713  0.1680562512183457  0.0022999022680921
  0.8330819388012785  0.1658194343509720  0.0013178488969530
  0.1666335712190445  0.4944873285183746  0.3354248312012444
  0.5004765983118631  0.4974997324525745  0.3326511681119086
  0.8321618412583049  0.4962912174220193  0.3340271767622980
  0.1668478748155167  0.8383035033325470  0.3336878858573016
  0.5003684226542333  0.8339585178973792  0.3314755517527246
  0.8334126289848172  0.8371122061764069  0.3336694336315347
  0.1651991970056912  0.1674699931495809  0.3321843317038571
  0.5013246244936056  0.1683509347918104  0.3340396072634988
  0.8333263722031674  0.1673698222088262  0.3336318770260007
  0.1647904192567111  0.4927627778329295  0.6637239039265097
  0.5010306416701269  0.4978657486080991  0.6633113403908908
  0.8296142215842579  0.4995591865260849  0.6664541284769498
  0.1665255308721285  0.8316084262625978  0.6664399422383340
  0.5025448549118039  0.8306893009257763  0.6636403894073055
  0.8270236287932065  0.8315538086509733  0.6662475249346969
  0.1687998797232808  0.1709547396763824  0.6632283492975048
  0.5013036650724771  0.1678135378805052  0.6676290423180831
  0.8288887233499409  0.1669111613978345  0.6628260893347644
  0.2528327590149857  0.4102613530769901  0.1663977510232115
  0.5826857142699780  0.4140688894862308  0.1695993118803614
  0.9188123341118128  0.4124804415314074  0.1692544674572645
  0.2515868978312454  0.7555089926595215  0.1678512035770225
  0.5834457376566036  0.7535316927163009  0.1673832868619343
  0.9167858842294692  0.7556842839672839  0.1693980741720864
  0.2526251216783564  0.0868104088723740  0.1707084913909824
  0.5860679547091863  0.0865909978300294  0.1684083942645671
  0.9153992002605733  0.0850623895623670  0.1686111505749679
  0.2506329679174897  0.4124676311981688  0.4989143636131814
  0.5817619159633765  0.4164123282516812  0.4970332852415851
  0.9147285494427706  0.4133278428118032  0.4987448066008540
  0.2499990794968241  0.7455060309943136  0.4972875315712599
  0.5824058054345684  0.7480910483656444  0.4998229973564179
  0.9137182404249771  0.7439767286848422  0.4970854986748066
  0.2523374710461113  0.0875656092058250  0.4973815271567474
  0.5789701651117198  0.0822954301772256  0.4962468069681663
  0.9151691297972704  0.0895248437778449  0.4983307522867122
  0.2522403213267026  0.4122086649012644  0.8321939467821409
  0.5834466893842531  0.4161499889686056  0.8329357477397963
  0.9154381855280604  0.4152321367351135  0.8342588958798345
  0.2507364774190748  0.7534092200000657  0.8346152023748985
  0.5878893937080605  0.7540170447394132  0.8340915431577471
  0.9100803464268523  0.7515081545695637  0.8328588348984240
  0.2539630407345044  0.0842024280263871  0.8334233587245237
  0.5852421646954369  0.0821178339098054  0.8332193656105673
  0.9108479249994161  0.0815770375137888  0.8330540859697209
  0.9944672031752475  0.3305774341011443  0.0002817177731913
  0.3396946038816893  0.3323367049917607  0.0027616798106180
  0.6712102578187213  0.6671717660967573  0.0008375988845941
  0.6673677837884568  0.0025494809010027  0.0008996473113569
  0.9989318167695984  0.3314976455115612  0.3339834952047411
  0.3337233014933290  0.3323000487108843  0.3330706554131879
  0.6677658173283163  0.3333601853982486  0.3345564262798888
  0.9994498817129909  0.6645014602574051  0.3360424358015166
  0.6627145301067898  0.6656243093978773  0.3323195823440557
  0.9997787798712281  0.0040798925295178  0.3323247029199479
  0.3335170603266491  0.0005971598928056  0.3324385057046442
  0.6671158655293681  0.0026370758212693  0.3300097352220348
  0.9957260918576409  0.3304528464195045  0.6621260733609944
  0.3336694564044720  0.3294224238129004  0.6638285896213247
  0.6652045233639541  0.6641419222140570  0.6654428290317327
  0.6642743541391027  0.0037934104926691  0.6672429822598218
  0.4215752559856938  0.5823242624667486  0.1677849898221666
  0.0866086209024530  0.9208608228242241  0.1719645700317969
  0.4184570578948552  0.9228096638584233  0.1706569668485471
  0.7495848731019237  0.9197581685450160  0.1681365667813353
  0.0839367135948734  0.2518387597938059  0.1696518697777947
  0.4171327649983567  0.2506550031870560  0.1685106807974677
  0.7522600214904855  0.2483408360536998  0.1697355489574122
  0.0817145887249566  0.5782293482022993  0.4959834786677817
  0.4198720910753622  0.5793480119719518  0.4996386753770068
  0.7439759398221284  0.5791025956110971  0.4971780005757225
  0.4176001966581140  0.9202850552932631  0.4985408222420205
  0.0842198552542541  0.2505899556588247  0.4987887680917922
  0.4142375305500394  0.2488188283372565  0.4963750995098053
  0.7497455435365978  0.2520121798765800  0.4980260069627818
  0.7449981141029056  0.5861294939678743  0.8352020261695543
  0.0814559699713442  0.9170614421403442  0.8332441714667596
  0.4225021516573690  0.9204431806785394  0.8350806672449167
  0.7442980702408661  0.9148340419502716  0.8300847429484079
  0.4156469966192162  0.2496194066451451  0.8337009102411130
  0.7545739765865278  0.2477663625210624  0.8338452804919427
  0.6644361198410564  0.3317316626624915  0.9983984444455203
  0.9995524511397562  0.6686122340352796  0.9978996037352488
  0.3373862706914394  0.6691405292067429  0.0082029334814209
  0.0005081629616583  0.0026450611768851  0.0027813379660628
  0.3319466310263834  0.9987076906969889  0.9955205597030954
  0.3340070564898383  0.6647830260729037  0.3341749327389607
  0.6680082525598081  0.3343304291757931  0.6681209122775513
  0.9990582656359877  0.6664056395934068  0.6628899752354158
  0.3348430214108049  0.6677164595832110  0.6667653691947990
  0.9995912975351189  0.0023433443448653  0.6716945764117455
  0.3355188975045991  0.9962304156302864  0.6645035795502565
  0.0845233411697066  0.5771631978763523  0.1670932031788368
  0.7490607198880781  0.5893380916249242  0.1705119070441867
  0.0809277826747703  0.9133033210526378  0.4957070097016256
  0.7459549414059765  0.9131511787725373  0.4969190068122558
  0.0854860231413923  0.5825264369195295  0.8322845903355827
  0.4233307430280178  0.5847108998737482  0.8319853724014905
  0.0801257799936081  0.2503573300116102  0.8338715481761625
  0.1262261067665307  0.4441089645928145  0.0788972699366255
  0.4600645465334523  0.4575331582786291  0.0854927124033864
  0.8003405655669482  0.4586724647188092  0.0868599884654984
  0.1294042150104957  0.8015298152269068  0.0884087304736809
  0.4652682938720929  0.8047512439782309  0.0899391121695601
  0.7889194588530657  0.7944158252142657  0.0862885014041552
  0.1324510648496329  0.1340736841051609  0.0905927027237610
  0.4635951194804946  0.1318234714825763  0.0883402964788544
  0.7900813275907197  0.1257513453781627  0.0846130241393439
  0.1233403888208642  0.4531803189076058  0.4172989137504572
  0.4559917209785525  0.4565454966127476  0.4141716015625576
  0.7896376739844513  0.4571904077695308  0.4180964380608714
  0.1271098844681475  0.7821312021490883  0.4093757719347906
  0.4646786476410014  0.7995038973735902  0.4204822310168623
  0.7915934869568702  0.7827256812304810  0.4093122898199795
  0.1235578372206092  0.1267995437284810  0.4154844579652277
  0.4547210501130579  0.1259054510559849  0.4147186293273535
  0.7879418734772017  0.1278238393203708  0.4151841845880782
  0.1247884528679677  0.4462720048753468  0.7442627551739207
  0.4599409142140800  0.4487083066736375  0.7416992159254576
  0.7965232163815230  0.4688870702023777  0.7587257053389038
  0.1292707757727882  0.7994772249045923  0.7550593372743108
  0.4658871666375575  0.7999873810492701  0.7537661889946747
  0.7843381915560670  0.7906474247107340  0.7489297773278878
  0.1360815297696476  0.1270903869508189  0.7482589214203017
  0.4644059550759891  0.1316900903381324  0.7554297140333617
  0.7890286345008093  0.1244078172687182  0.7468535227681485
  0.2914180815477110  0.6228449920764092  0.0930676966534989
  0.6175467414346230  0.6288953906157531  0.0775733059424866
  0.9513490982424955  0.6274227723659465  0.0852097878288447
  0.2925468106560842  0.9608415232821557  0.0893085708135786
  0.6298678699875211  0.9634293775441023  0.0854285584031587
  0.9580518038684147  0.9576198985063016  0.0911973019159404
  0.2960429513612937  0.2885531373757715  0.0821909594487096
  0.6276074290661313  0.2903016375318828  0.0906989135249319
  0.9603124314073241  0.2891807966779538  0.0850379628368785
  0.2916640003164375  0.6169054910349843  0.4209177397054376
  0.6241341496149460  0.6240547762082045  0.4154321624815722
  0.9580287742475875  0.6201855174032715  0.4159264067165296
  0.2942182806279519  0.9608448341320042  0.4164707693846523
  0.6187287734014006  0.9618930964945491  0.4084447519415448
  0.9522508794017881  0.9652547151873776  0.4122015800044920
  0.2919761524050131  0.2896496370630217  0.4141255588425423
  0.6266863909123188  0.2925647746236280  0.4165268781951426
  0.9593211356124627  0.2902440586019637  0.4165762680173373
  0.2812720742032795  0.6228773845352080  0.7494859312762046
  0.6249020350458991  0.6247366955718334  0.7487647334968699
  0.9483537189419948  0.6262741721395244  0.7496855602403940
  0.2931282125056356  0.9545036368862370  0.7541561288623626
  0.6247419364746207  0.9579619222075522  0.7472583033239601
  0.9526272076551194  0.9539539489679214  0.7548861247935150
  0.2966140320331974  0.2910788217907481  0.7486619993925743
  0.6278292605624074  0.2891113913808994  0.7570010315088922
  0.9495792986309155  0.2935225902519747  0.7430963086733939
  0.2095750832416172  0.3718189803334297  0.2510181487598331
  0.5421053571054060  0.3712022206734957  0.2522185588837829
  0.8742742632707703  0.3708488869342901  0.2512571270559008
  0.2075197330810710  0.7181154448603522  0.2495543551835055
  0.5419140993392944  0.7074989410286960  0.2490643256058647
  0.8850668300518834  0.7177596530022967  0.2582088490621572
  0.2091794381825665  0.0428770040968942  0.2517796378099177
  0.5425529866914687  0.0437672389713910  0.2501013980263735
  0.8738289423318903  0.0420108719876353  0.2506993884542581
  0.2107765011816980  0.3702870683903541  0.5825568754572572
  0.5353346900085398  0.3730795816604058  0.5755016708699188
  0.8730545812037462  0.3743206440450990  0.5835446079079887
  0.1996176234710205  0.7067064577302347  0.5766751915469897
  0.5414114990658021  0.7024020216474725  0.5814546596989416
  0.8616766638375850  0.7068616673618848  0.5762568790843545
  0.2092464605610687  0.0494555829222065  0.5796271579033174
  0.5413402224408301  0.0420507105616039  0.5829000775422699
  0.8749058711426798  0.0493067914736756  0.5812688847096865
  0.2191514875221614  0.3763235229038671  0.9219564837424699
  0.5338094209501207  0.3766270547605259  0.9123282323987283
  0.8744324716520495  0.3731380954238972  0.9176554150301115
  0.2111953050634696  0.7195149086219814  0.9206972682214172
  0.5539432021282806  0.7161863887582456  0.9223343531473489
  0.8641819178013250  0.7125245856685112  0.9141783958510175
  0.1986221720121080  0.0440393892405879  0.9099034560167567
  0.5442445027767207  0.0429594727883682  0.9184908167752752
  0.8645456196709276  0.0394788571719360  0.9122217889442013
  0.0405540727092060  0.5379790325882396  0.2576279961706049
  0.3777325727887941  0.5336265826319462  0.2444366803760190
  0.7051020695923356  0.5390168936814135  0.2556185540590619
  0.0421052153160986  0.8812082393281742  0.2521223729026403
  0.3767408511324248  0.8787677815031714  0.2503212200067537
  0.7084845845857544  0.8779982884727389  0.2501653532257393
  0.0403680629881933  0.2102391659342686  0.2499433354976972
  0.3771689648287690  0.2113079359289642  0.2517176015868259
  0.7101852722317545  0.2116586830957274  0.2526073312599308
  0.0430581249826076  0.5325191491002101  0.5769790187512029
  0.3765339635505001  0.5348513981580894  0.5780048640624358
  0.7056314952119251  0.5416668135841505  0.5821625451835928
  0.0384019877968456  0.8661002395194686  0.5825947640625060
  0.3779625009457206  0.8654706733431752  0.5742912496499883
  0.7026498080426649  0.8756313012908947  0.5882498199978059
  0.0414581633327629  0.2124798110822681  0.5813955272119031
  0.3782317745828081  0.2107721141712204  0.5821721807499571
  0.7062476277468335  0.2027890760977868  0.5745032452212726
  0.0454492679002740  0.5313582792194893  0.9191408967833752
  0.3741367733437357  0.5360208168861647  0.9156862306063260
  0.7075093884935697  0.5422109863142097  0.9173982797202456
  0.0409142693712710  0.8702699065180184  0.9117686525187167
  0.3822637405735350  0.8694025837726898  0.9114926981703135
  0.7095101299289439  0.8814582211746114  0.9185213042914455
  0.0349964875449658  0.2058043680992370  0.9209110077098046
  0.3787082495699536  0.2097338361628260  0.9182189870130699
  0.7121831973930597  0.2026369890284556  0.9125634271149252

  0.00000000E+00  0.00000000E+00  0.00000000E+00
  0.00000000E+00  0.00000000E+00  0.00000000E+00
  0.00000000E+00  0.00000000E+00  0.00000000E+00
  0.00000000E+00  0.00000000E+00  0.00000000E+00
  0.00000000E+00  0.00000000E+00  0.00000000E+00
  0.00000000E+00  0.00000000E+00  0.00000000E+00
  0.00000000E+00  0.00000000E+00  0.00000000E+00
  0.00000000E+00  0.00000000E+00  0.00000000E+00
  0.00000000E+00  0.00000000E+00  0.00000000E+00
  0.00000000E+00  0.00000000E+00  0.00000000E+00
  0.00000000E+00  0.00000000E+00  0.00000000E+00
  0.00000000E+00  0.00000000E+00  0.00000000E+00
  0.00000000E+00  0.00000000E+00  0.00000000E+00
  0.00000000E+00  0.00000000E+00  0.00000000E+00
  0.00000000E+00  0.00000000E+00  0.00000000E+00
  0.00000000E+00  0.00000000E+00  0.00000000E+00
  0.00000000E+00  0.00000000E+00  0.00000000E+00
  0.00000000E+00  0.00000000E+00  0.00000000E+00
  0.00000000E+00  0.00000000E+00  0.00000000E+00
  0.00000000E+00  0.00000000E+00  0.00000000E+00
  0.00000000E+00  0.00000000E+00  0.00000000E+00
  0.00000000E+00  0.00000000E+00  0.00000000E+00
  0.00000000E+00  0.00000000E+00  0.00000000E+00
  0.00000000E+00  0.00000000E+00  0.00000000E+00
  0.00000000E+00  0.00000000E+00  0.00000000E+00
  0.00000000E+00  0.00000000E+00  0.00000000E+00
  0.00000000E+00  0.00000000E+00  0.00000000E+00
  0.00000000E+00  0.00000000E+00  0.00000000E+00
  0.00000000E+00  0.00000000E+00  0.00000000E+00
  0.00000000E+00  0.00000000E+00  0.00000000E+00
  0.00000000E+00  0.00000000E+00  0.00000000E+00
  0.00000000E+00  0.00000000E+00  0.00000000E+00
  0.00000000E+00  0.00000000E+00  0.00000000E+00
  0.00000000E+00  0.00000000E+00  0.00000000E+00
  0.00000000E+00  0.00000000E+00  0.00000000E+00
  0.00000000E+00  0.00000000E+00  0.00000000E+00
  0.00000000E+00  0.00000000E+00  0.00000000E+00
  0.00000000E+00  0.00000000E+00  0.00000000E+00
  0.00000000E+00  0.00000000E+00  0.00000000E+00
  0.00000000E+00  0.00000000E+00  0.00000000E+00
  0.00000000E+00  0.00000000E+00  0.00000000E+00
  0.00000000E+00  0.00000000E+00  0.00000000E+00
  0.00000000E+00  0.00000000E+00  0.00000000E+00
  0.00000000E+00  0.00000000E+00  0.00000000E+00
  0.00000000E+00  0.00000000E+00  0.00000000E+00
  0.00000000E+00  0.00000000E+00  0.00000000E+00
  0.00000000E+00  0.00000000E+00  0.00000000E+00
  0.00000000E+00  0.00000000E+00  0.00000000E+00
  0.00000000E+00  0.00000000E+00  0.00000000E+00
  0.00000000E+00  0.00000000E+00  0.00000000E+00
  0.00000000E+00  0.00000000E+00  0.00000000E+00
  0.00000000E+00  0.00000000E+00  0.00000000E+00
  0.00000000E+00  0.00000000E+00  0.00000000E+00
  0.00000000E+00  0.00000000E+00  0.00000000E+00
  0.00000000E+00  0.00000000E+00  0.00000000E+00
  0.00000000E+00  0.00000000E+00  0.00000000E+00
  0.00000000E+00  0.00000000E+00  0.00000000E+00
  0.00000000E+00  0.00000000E+00  0.00000000E+00
  0.00000000E+00  0.00000000E+00  0.00000000E+00
  0.00000000E+00  0.00000000E+00  0.00000000E+00
  0.00000000E+00  0.00000000E+00  0.00000000E+00
  0.00000000E+00  0.00000000E+00  0.00000000E+00
  0.00000000E+00  0.00000000E+00  0.00000000E+00
  0.00000000E+00  0.00000000E+00  0.00000000E+00
  0.00000000E+00  0.00000000E+00  0.00000000E+00
  0.00000000E+00  0.00000000E+00  0.00000000E+00
  0.00000000E+00  0.00000000E+00  0.00000000E+00
  0.00000000E+00  0.00000000E+00  0.00000000E+00
  0.00000000E+00  0.00000000E+00  0.00000000E+00
  0.00000000E+00  0.00000000E+00  0.00000000E+00
  0.00000000E+00  0.00000000E+00  0.00000000E+00
  0.00000000E+00  0.00000000E+00  0.00000000E+00
  0.00000000E+00  0.00000000E+00  0.00000000E+00
  0.00000000E+00  0.00000000E+00  0.00000000E+00
  0.00000000E+00  0.00000000E+00  0.00000000E+00
  0.00000000E+00  0.00000000E+00  0.00000000E+00
  0.00000000E+00  0.00000000E+00  0.00000000E+00
  0.00000000E+00  0.00000000E+00  0.00000000E+00
  0.00000000E+00  0.00000000E+00  0.00000000E+00
  0.00000000E+00  0.00000000E+00  0.00000000E+00
  0.00000000E+00  0.00000000E+00  0.00000000E+00
  0.00000000E+00  0.00000000E+00  0.00000000E+00
  0.00000000E+00  0.00000000E+00  0.00000000E+00
  0.00000000E+00  0.00000000E+00  0.00000000E+00
  0.00000000E+00  0.00000000E+00  0.00000000E+00
  0.00000000E+00  0.00000000E+00  0.00000000E+00
  0.00000000E+00  0.00000000E+00  0.00000000E+00
  0.00000000E+00  0.00000000E+00  0.00000000E+00
  0.00000000E+00  0.00000000E+00  0.00000000E+00
  0.00000000E+00  0.00000000E+00  0.00000000E+00
  0.00000000E+00  0.00000000E+00  0.00000000E+00
  0.00000000E+00  0.00000000E+00  0.00000000E+00
  0.00000000E+00  0.00000000E+00  0.00000000E+00
  0.00000000E+00  0.00000000E+00  0.00000000E+00
  0.00000000E+00  0.00000000E+00  0.00000000E+00
  0.00000000E+00  0.00000000E+00  0.00000000E+00
  0.00000000E+00  0.00000000E+00  0.00000000E+00
  0.00000000E+00  0.00000000E+00  0.00000000E+00
  0.00000000E+00  0.00000000E+00  0.00000000E+00
  0.00000000E+00  0.00000000E+00  0.00000000E+00
  0.00000000E+00  0.00000000E+00  0.00000000E+00
  0.00000000E+00  0.00000000E+00  0.00000000E+00
  0.00000000E+00  0.00000000E+00  0.00000000E+00
  0.00000000E+00  0.00000000E+00  0.00000000E+00
  0.00000000E+00  0.00000000E+00  0.00000000E+00
  0.00000000E+00  0.00000000E+00  0.00000000E+00
  0.00000000E+00  0.00000000E+00  0.00000000E+00
  0.00000000E+00  0.00000000E+00  0.00000000E+00
  0.00000000E+00  0.00000000E+00  0.00000000E+00
  0.00000000E+00  0.00000000E+00  0.00000000E+00
  0.00000000E+00  0.00000000E+00  0.00000000E+00
  0.00000000E+00  0.00000000E+00  0.00000000E+00
  0.00000000E+00  0.00000000E+00  0.00000000E+00
  0.00000000E+00  0.00000000E+00  0.00000000E+00
  0.00000000E+00  0.00000000E+00  0.00000000E+00
  0.00000000E+00  0.00000000E+00  0.00000000E+00
  0.00000000E+00  0.00000000E+00  0.00000000E+00
  0.00000000E+00  0.00000000E+00  0.00000000E+00
  0.00000000E+00  0.00000000E+00  0.00000000E+00
  0.00000000E+00  0.00000000E+00  0.00000000E+00
  0.00000000E+00  0.00000000E+00  0.00000000E+00
  0.00000000E+00  0.00000000E+00  0.00000000E+00
  0.00000000E+00  0.00000000E+00  0.00000000E+00
  0.00000000E+00  0.00000000E+00  0.00000000E+00
  0.00000000E+00  0.00000000E+00  0.00000000E+00
  0.00000000E+00  0.00000000E+00  0.00000000E+00
  0.00000000E+00  0.00000000E+00  0.00000000E+00
  0.00000000E+00  0.00000000E+00  0.00000000E+00
  0.00000000E+00  0.00000000E+00  0.00000000E+00
  0.00000000E+00  0.00000000E+00  0.00000000E+00
  0.00000000E+00  0.00000000E+00  0.00000000E+00
  0.00000000E+00  0.00000000E+00  0.00000000E+00
  0.00000000E+00  0.00000000E+00  0.00000000E+00
  0.00000000E+00  0.00000000E+00  0.00000000E+00
  0.00000000E+00  0.00000000E+00  0.00000000E+00
  0.00000000E+00  0.00000000E+00  0.00000000E+00
  0.00000000E+00  0.00000000E+00  0.00000000E+00
  0.00000000E+00  0.00000000E+00  0.00000000E+00
  0.00000000E+00  0.00000000E+00  0.00000000E+00
  0.00000000E+00  0.00000000E+00  0.00000000E+00
  0.00000000E+00  0.00000000E+00  0.00000000E+00
  0.00000000E+00  0.00000000E+00  0.00000000E+00
  0.00000000E+00  0.00000000E+00  0.00000000E+00
  0.00000000E+00  0.00000000E+00  0.00000000E+00
  0.00000000E+00  0.00000000E+00  0.00000000E+00
  0.00000000E+00  0.00000000E+00  0.00000000E+00
  0.00000000E+00  0.00000000E+00  0.00000000E+00
  0.00000000E+00  0.00000000E+00  0.00000000E+00
  0.00000000E+00  0.00000000E+00  0.00000000E+00
  0.00000000E+00  0.00000000E+00  0.00000000E+00
  0.00000000E+00  0.00000000E+00  0.00000000E+00
  0.00000000E+00  0.00000000E+00  0.00000000E+00
  0.00000000E+00  0.00000000E+00  0.00000000E+00
  0.00000000E+00  0.00000000E+00  0.00000000E+00
  0.00000000E+00  0.00000000E+00  0.00000000E+00
  0.00000000E+00  0.00000000E+00  0.00000000E+00
  0.00000000E+00  0.00000000E+00  0.00000000E+00
  0.00000000E+00  0.00000000E+00  0.00000000E+00
  0.00000000E+00  0.00000000E+00  0.00000000E+00
  0.00000000E+00  0.00000000E+00  0.00000000E+00
  0.00000000E+00  0.00000000E+00  0.00000000E+00
  0.00000000E+00  0.00000000E+00  0.00000000E+00
  0.00000000E+00  0.00000000E+00  0.00000000E+00
  0.00000000E+00  0.00000000E+00  0.00000000E+00
  0.00000000E+00  0.00000000E+00  0.00000000E+00
  0.00000000E+00  0.00000000E+00  0.00000000E+00
  0.00000000E+00  0.00000000E+00  0.00000000E+00
  0.00000000E+00  0.00000000E+00  0.00000000E+00
  0.00000000E+00  0.00000000E+00  0.00000000E+00
  0.00000000E+00  0.00000000E+00  0.00000000E+00
  0.00000000E+00  0.00000000E+00  0.00000000E+00
  0.00000000E+00  0.00000000E+00  0.00000000E+00
  0.00000000E+00  0.00000000E+00  0.00000000E+00
  0.00000000E+00  0.00000000E+00  0.00000000E+00
  0.00000000E+00  0.00000000E+00  0.00000000E+00
  0.00000000E+00  0.00000000E+00  0.00000000E+00
  0.00000000E+00  0.00000000E+00  0.00000000E+00
  0.00000000E+00  0.00000000E+00  0.00000000E+00
  0.00000000E+00  0.00000000E+00  0.00000000E+00
  0.00000000E+00  0.00000000E+00  0.00000000E+00
  0.00000000E+00  0.00000000E+00  0.00000000E+00
  0.00000000E+00  0.00000000E+00  0.00000000E+00
  0.00000000E+00  0.00000000E+00  0.00000000E+00
  0.00000000E+00  0.00000000E+00  0.00000000E+00
  0.00000000E+00  0.00000000E+00  0.00000000E+00
  0.00000000E+00  0.00000000E+00  0.00000000E+00
  0.00000000E+00  0.00000000E+00  0.00000000E+00
  0.00000000E+00  0.00000000E+00  0.00000000E+00
  0.00000000E+00  0.00000000E+00  0.00000000E+00
  0.00000000E+00  0.00000000E+00  0.00000000E+00
  0.00000000E+00  0.00000000E+00  0.00000000E+00
  0.00000000E+00  0.00000000E+00  0.00000000E+00
  0.00000000E+00  0.00000000E+00  0.00000000E+00
  0.00000000E+00  0.00000000E+00  0.00000000E+00
  0.00000000E+00  0.00000000E+00  0.00000000E+00
  0.00000000E+00  0.00000000E+00  0.00000000E+00
  0.00000000E+00  0.00000000E+00  0.00000000E+00
  0.00000000E+00  0.00000000E+00  0.00000000E+00
  0.00000000E+00  0.00000000E+00  0.00000000E+00
  0.00000000E+00  0.00000000E+00  0.00000000E+00
  0.00000000E+00  0.00000000E+00  0.00000000E+00
  0.00000000E+00  0.00000000E+00  0.00000000E+00
  0.00000000E+00  0.00000000E+00  0.00000000E+00
  0.00000000E+00  0.00000000E+00  0.00000000E+00
  0.00000000E+00  0.00000000E+00  0.00000000E+00
  0.00000000E+00  0.00000000E+00  0.00000000E+00
  0.00000000E+00  0.00000000E+00  0.00000000E+00
  0.00000000E+00  0.00000000E+00  0.00000000E+00
  0.00000000E+00  0.00000000E+00  0.00000000E+00
  0.00000000E+00  0.00000000E+00  0.00000000E+00
  0.00000000E+00  0.00000000E+00  0.00000000E+00
  0.00000000E+00  0.00000000E+00  0.00000000E+00
  0.00000000E+00  0.00000000E+00  0.00000000E+00
  0.00000000E+00  0.00000000E+00  0.00000000E+00
  0.00000000E+00  0.00000000E+00  0.00000000E+00
  0.00000000E+00  0.00000000E+00  0.00000000E+00
