In36 Ga18 Cu18 Ag36 Se108               
   1.0000000000000000     
    16.4436754768738211   -0.0599451762030445   -7.4016418296556230
    -3.2883118631340245   16.0895170583616576   -7.4745871561925021
    -0.0498105818103109    0.0334402248066766   21.8466601912047125
   In   Ga   Cu   Ag   Se
    36    18    18    36   108
Direct
  0.4975423039405626  0.5054665680432393  0.0002359423296951
  0.1670323417811304  0.8273281476394558  0.9983578517870910
  0.8390952087220072  0.8286679485667960  0.0010692752985832
  0.1674642967809348  0.1632085885860803  0.9973053718797829
  0.8342681568433150  0.1691094777253070  0.9978157690450260
  0.5051943467901125  0.4998552853173805  0.3319849128049128
  0.8287600893923894  0.5046324019434252  0.3353703569835318
  0.8283974713009528  0.8264691841694400  0.3323119579563851
  0.1652822568509222  0.1639274156749195  0.3326179146675514
  0.4975820320927582  0.1649664338331647  0.3311336706321839
  0.1612188147833606  0.5006184800931095  0.6671065334547635
  0.1660047057068326  0.8297482306070094  0.6661759003124317
  0.5056261639577642  0.8356590753897635  0.6674380543190992
  0.8322026564878655  0.8334450211092843  0.6712786523176959
  0.1669836217369109  0.1684572357128999  0.6685378806480884
  0.5028704301221580  0.1620339087506792  0.6678497596562210
  0.8327386332761364  0.1703706855799538  0.6714116962223997
  0.2536282959996328  0.4190197352941638  0.1655929588928160
  0.5784657847418586  0.4158286753883260  0.1624832721147058
  0.9166966189269061  0.4223263020786092  0.1680027904668719
  0.9193908823667130  0.7455501210484528  0.1652663446588321
  0.2534592402730027  0.0780071917500180  0.1641277955258431
  0.5762109413901655  0.0784861908164345  0.1631501615345741
  0.9177367316491001  0.0842142990089059  0.1691337205054353
  0.2500836177822663  0.4165073747785470  0.4973237572630538
  0.5895107060633222  0.4222468033455371  0.5040861844837963
  0.2503202616276212  0.7518296771208384  0.4947434696945336
  0.5875248352649223  0.7515592100049489  0.4985850946397221
  0.2522513442743914  0.0763882102995126  0.4997548839208790
  0.5795604701460988  0.0752169452742848  0.4963099005909655
  0.9135730031353830  0.0853992568563271  0.4983723571195213
  0.2480339481392591  0.4204611288331321  0.8377549025786024
  0.5895101684431765  0.4198403519646163  0.8343363293863888
  0.5853627124201566  0.7473742573343074  0.8356660584042572
  0.2552241920531486  0.0823003517875094  0.8355526253677894
  0.5834690100443964  0.0881684473142883  0.8370473737099005
  0.1673682788666611  0.5035297488244481  0.0011110604080429
  0.8319481852191473  0.5049326614119565  0.9978191593055925
  0.4965566038311309  0.8256382277578780  0.0021999306245846
  0.4960413539148050  0.1703036156501199  0.0028484011809837
  0.1653706677810689  0.4986655797365032  0.3311248378602514
  0.1717783083962203  0.8337547733964286  0.3297483768667036
  0.4976295586238351  0.8277270251111162  0.3269357100149151
  0.8314930956253974  0.1705974626451194  0.3329295126464871
  0.5033056622883194  0.5033937532696413  0.6668774071481991
  0.8387389384995600  0.5056556410081541  0.6686853183359389
  0.2479773174855779  0.7494643869798239  0.1635055114529465
  0.5823165567097917  0.7485828985454503  0.1678056482992858
  0.9119086984843463  0.4184581004431536  0.4995675697309920
  0.9105462688577077  0.7477342830425187  0.5001679673600066
  0.9174134745521485  0.4231153173544513  0.8348149196268508
  0.2527711380135358  0.7494055308497565  0.8384143342258952
  0.9158886497970471  0.7427400894287572  0.8332716696642279
  0.9139013002776508  0.0845173399606338  0.8340699688338020
  0.3316784959826435  0.3341383059118854  0.0031340778052638
  0.0067012623091145  0.6651668490377105  0.0005375265901861
  0.3354130529332977  0.6718182276873534  0.0050266170544830
  0.6672934579932175  0.6690321231017435  0.0077302736365255
  0.3394885698119765  0.9959784013843915  0.0025855477213170
  0.9953766859574316  0.3370525774008541  0.3353111971735743
  0.6665336818078629  0.6630609871498621  0.3302230491175919
  0.9931189748386302  0.3356872184913371  0.6668739880858112
  0.6721630549000537  0.6614498705334526  0.6665044787163978
  0.3351145421688102  0.9932427498700207  0.6612548632012789
  0.6693547427681281  0.0085832336561609  0.6727310414694188
  0.7444732296373360  0.5850889585496617  0.1632284909093826
  0.0879618577325587  0.9082575736488536  0.1662733258425604
  0.4131033077554207  0.9044891356229172  0.1590685794644955
  0.4142995807320062  0.2449850679163248  0.1579299910736509
  0.7517824270568241  0.5866707302820657  0.5034868235090144
  0.4202952313907531  0.9140778651385375  0.4984644278650450
  0.7555193823228024  0.2505551175226230  0.8349984766088738
  0.9916614572114639  0.3381753872173050  0.9900038849182451
  0.6700007618249799  0.3418203913876710  0.0046165710518835
  0.9985688352535291  0.9923882592707329  0.0007393734308820
  0.6597118749703696  0.9942765434560243  0.9974275948778271
  0.3342401097942513  0.3326460451844397  0.3282359082520614
  0.6686009780202369  0.3355269946885713  0.3333552941313584
  0.0002858780671104  0.6696549101605953  0.3356256545491618
  0.3331215913216852  0.6691337470775949  0.3338435203073331
  0.0003853204900253  0.9945890030094660  0.3298028519905287
  0.3312490338054701  0.9853958192112131  0.3238649381063112
  0.6639585305128506  0.0015259094687252  0.3287067077041073
  0.3358831563955320  0.3385749971915928  0.6679745616282773
  0.6734629773015044  0.3391240809145515  0.6739498501549193
  0.9997196877540730  0.6689210712351112  0.6658917907718021
  0.3372256853126245  0.6711522385134714  0.6705028334499730
  0.9986305300199518  0.0013145684873948  0.6671353996312348
  0.0839438011730067  0.5852391112833288  0.1649153307742139
  0.4147523018157955  0.5923498591773821  0.1602185146453294
  0.7500570035772824  0.9175611924107301  0.1668148470749458
  0.0825979529153855  0.2498861768112306  0.1696384785390137
  0.7519588360053220  0.2496418810754903  0.1676453787542727
  0.0814932208908772  0.5774971388872032  0.4932176559091275
  0.4203875334341447  0.5890077994227170  0.5051566362669959
  0.0823509835087179  0.9133691640101986  0.5021263839946215
  0.7438083553292003  0.9101537105984931  0.4979744666565082
  0.0704336547085092  0.2528970604891541  0.4967612372576724
  0.4238848161077371  0.2545558638310439  0.5049131197124836
  0.7594482127372189  0.2573078772502626  0.5078109878138051
  0.0828803053521270  0.5835298812680705  0.8370069885340996
  0.4188863743949796  0.5866783890178340  0.8341154744940198
  0.7497750035066844  0.5841757680237691  0.8338581677516359
  0.0828263985380886  0.9188470242949904  0.8356379678077346
  0.4103690076679740  0.9197706543831359  0.8412687449962490
  0.7531027823527410  0.9140157016076387  0.8295460189829029
  0.0816809971837387  0.2606217486375542  0.8365667151510863
  0.4170880598887194  0.2457002771717072  0.8362799041664175
  0.1272409524993208  0.4601251099522585  0.0773416607424977
  0.4473899793938187  0.4534484440778783  0.0765741410473524
  0.7936414388203090  0.4738356867543772  0.0845859491380025
  0.1228944300972898  0.7872675968103380  0.0858022494258748
  0.4580002549796163  0.7861603273418964  0.0848178297157176
  0.7873953535658273  0.7849833240890192  0.0809928532195485
  0.1246763587983040  0.1225967643030259  0.0830056911237875
  0.4496527254339711  0.1242256956002663  0.0772562166959219
  0.7901622904022148  0.1208159788865686  0.0789068386162199
  0.1197161449385149  0.4506675705797036  0.4042297678743267
  0.4614252125976037  0.4613160545562494  0.4176367248167949
  0.7919896256946828  0.4662612924985226  0.4270571709240016
  0.1270932737415009  0.7958796903634635  0.4074678654669555
  0.4598875470999886  0.7988309698257652  0.4145145950930598
  0.7872180182691082  0.7798317182241732  0.4164905965359438
  0.1252108613096752  0.1252000286943158  0.4207156476355678
  0.4523881560209730  0.1204006977811218  0.4135291994045147
  0.7903156085247858  0.1296447432433894  0.4107260250355722
  0.1142985404359038  0.4501786998347654  0.7461034863550537
  0.4652063354281140  0.4643529222695406  0.7471350952777911
  0.8031673978102063  0.4634929186317009  0.7501215155820304
  0.1340197201336650  0.7899245081869921  0.7582449358250329
  0.4627955871274523  0.7995094850947098  0.7559945409914590
  0.7924823754995316  0.7776915370579331  0.7518999936731277
  0.1260305973806553  0.1284171885544367  0.7555143087400040
  0.4487644166889169  0.1151240300447327  0.7447676726904717
  0.7901138003788333  0.1264024622796640  0.7573315270965608
  0.2813869923700452  0.6301065328885329  0.0759559806877377
  0.6288853316777434  0.6320322621967378  0.0890173249757424
  0.9557928677858314  0.6196509336082343  0.0712013873261910
  0.3009379355590625  0.9514279055607062  0.0807120645193820
  0.6127352035969977  0.9464260515945142  0.0772319388443279
  0.9690302440664809  0.9541630328176893  0.0941604749859053
  0.2987054822188426  0.2901079589599291  0.0821099667500391
  0.6190770914464991  0.2850731769015837  0.0790095314467933
  0.9600181974552129  0.2969542522166577  0.0822591752172173
  0.2865276910141858  0.6165105968841900  0.4116697241870142
  0.6381904266738019  0.6247816540769122  0.4160350466802072
  0.9545081031286458  0.6334453614465900  0.4219776759303642
  0.2968902790586725  0.9472307712504389  0.4160624415291849
  0.6161993420244940  0.9471531406281173  0.4061845279158831
  0.9547883621996434  0.9548741036991828  0.4151787877940620
  0.2940712607474865  0.2892223670374676  0.4140593982075984
  0.6263640509922794  0.2907702154762077  0.4183005936799589
  0.9454872388882976  0.2982540683495003  0.4106253576914654
  0.2875859589346703  0.6311992801448767  0.7539849876167395
  0.6232389933061029  0.6220127266182303  0.7412611711656183
  0.9553697604211280  0.6263356269647673  0.7512740044316217
  0.2936936205661524  0.9579883516330483  0.7419493845940437
  0.6306053324270735  0.9660797270159449  0.7500250507023480
  0.9550189657561390  0.9657326884547857  0.7561452944714588
  0.2940342599566463  0.2958479022160887  0.7537097300156361
  0.6345013395589731  0.2873151446274136  0.7560407758281826
  0.9559705730685835  0.3047294246208665  0.7512543331307242
  0.2063217730595781  0.3821310333361438  0.2512465226845180
  0.5335944639204158  0.3636964507083391  0.2414969278836594
  0.8791086295607542  0.3779119987542501  0.2555711846275841
  0.2100420551438802  0.7157973540071154  0.2471439054686542
  0.5500034139091667  0.7111904128020896  0.2541264409440203
  0.8671060010419325  0.6982825625703839  0.2433834235507462
  0.2011079819335961  0.0313965197163952  0.2430425426978999
  0.5263458223411703  0.0289813327223101  0.2405218318039530
  0.8720993078097763  0.0493310447481363  0.2565477471712256
  0.2047372187017231  0.3750982424639631  0.5812356953497186
  0.5459822376593380  0.3850935438814247  0.5915375815728297
  0.8833132193925408  0.3865584924691419  0.5900367841617182
  0.2084345995908805  0.7060323176753869  0.5784762121878728
  0.5557433664956477  0.7070904040076371  0.5893111247872653
  0.8687393968840453  0.7061696320281996  0.5778234629311356
  0.2144001272938709  0.0374813243414067  0.5894244167221387
  0.5430970784195281  0.0291927259725568  0.5834994411482839
  0.8692916804183923  0.0416015780598684  0.5816263915187321
  0.2145243823348792  0.3827439712622152  0.9302716775389399
  0.5393244515813933  0.3782064119142419  0.9152797177286089
  0.8618716250578018  0.3814904539580084  0.9073847299128417
  0.2177821631888790  0.7035700635100071  0.9173916213645015
  0.5495418547765567  0.7113485653020817  0.9293163941706197
  0.8884110434752728  0.7034260344653518  0.9188069764515916
  0.2202049393030521  0.0346828411324154  0.9225885695288838
  0.5360416884953736  0.0517008835283050  0.9233093816408058
  0.8792045740498082  0.0429871416555230  0.9140790891146438
  0.0499655433382244  0.5441169785117168  0.2550987435447780
  0.3799447269801135  0.5460925411947954  0.2488557449521096
  0.7040588884130798  0.5484002671966834  0.2445573738906504
  0.0516753299372894  0.8724208018648838  0.2482969975699163
  0.3766239024898042  0.8609214925587167  0.2380586452839921
  0.7006084378909563  0.8667113245600646  0.2449833214416230
  0.0378059652406151  0.2183713665284728  0.2588818752796911
  0.3770972783033315  0.2091163056733905  0.2401918514345596
  0.7088217509187444  0.2027596727581624  0.2507514802336388
  0.0323773561217706  0.5353787482477230  0.5755215204999473
  0.3813640232471371  0.5412098307101871  0.5891256220779582
  0.7196744209741865  0.5500234866343376  0.5888019118590790
  0.0310458891219199  0.8656856472855807  0.5802427722980212
  0.3787437205996582  0.8809320846046447  0.5801103716541647
  0.7070542726976825  0.8867045496501049  0.5947836202764165
  0.0362532481148392  0.2176408550164837  0.5904140509973104
  0.3769542123105794  0.2063815420652233  0.5845768687289734
  0.7042741462025361  0.2059396685186954  0.5815548513360298
  0.0413021993281504  0.5402659708504203  0.9228625058324482
  0.3700320840254605  0.5538593463711479  0.9217459678332531
  0.7115265471434498  0.5534966977377849  0.9279674186251725
  0.0340090707969622  0.8623222951385472  0.9104406179087903
  0.3744672868365839  0.8687449724403038  0.9249484469276155
  0.7132289898349100  0.8735513030631665  0.9172948996427621
  0.0343004493205186  0.2017956808004229  0.9113032008403295
  0.3772903260434930  0.2162582394295711  0.9286352420957726
  0.7110020301838631  0.2164279966811478  0.9136527383594810

  0.00000000E+00  0.00000000E+00  0.00000000E+00
  0.00000000E+00  0.00000000E+00  0.00000000E+00
  0.00000000E+00  0.00000000E+00  0.00000000E+00
  0.00000000E+00  0.00000000E+00  0.00000000E+00
  0.00000000E+00  0.00000000E+00  0.00000000E+00
  0.00000000E+00  0.00000000E+00  0.00000000E+00
  0.00000000E+00  0.00000000E+00  0.00000000E+00
  0.00000000E+00  0.00000000E+00  0.00000000E+00
  0.00000000E+00  0.00000000E+00  0.00000000E+00
  0.00000000E+00  0.00000000E+00  0.00000000E+00
  0.00000000E+00  0.00000000E+00  0.00000000E+00
  0.00000000E+00  0.00000000E+00  0.00000000E+00
  0.00000000E+00  0.00000000E+00  0.00000000E+00
  0.00000000E+00  0.00000000E+00  0.00000000E+00
  0.00000000E+00  0.00000000E+00  0.00000000E+00
  0.00000000E+00  0.00000000E+00  0.00000000E+00
  0.00000000E+00  0.00000000E+00  0.00000000E+00
  0.00000000E+00  0.00000000E+00  0.00000000E+00
  0.00000000E+00  0.00000000E+00  0.00000000E+00
  0.00000000E+00  0.00000000E+00  0.00000000E+00
  0.00000000E+00  0.00000000E+00  0.00000000E+00
  0.00000000E+00  0.00000000E+00  0.00000000E+00
  0.00000000E+00  0.00000000E+00  0.00000000E+00
  0.00000000E+00  0.00000000E+00  0.00000000E+00
  0.00000000E+00  0.00000000E+00  0.00000000E+00
  0.00000000E+00  0.00000000E+00  0.00000000E+00
  0.00000000E+00  0.00000000E+00  0.00000000E+00
  0.00000000E+00  0.00000000E+00  0.00000000E+00
  0.00000000E+00  0.00000000E+00  0.00000000E+00
  0.00000000E+00  0.00000000E+00  0.00000000E+00
  0.00000000E+00  0.00000000E+00  0.00000000E+00
  0.00000000E+00  0.00000000E+00  0.00000000E+00
  0.00000000E+00  0.00000000E+00  0.00000000E+00
  0.00000000E+00  0.00000000E+00  0.00000000E+00
  0.00000000E+00  0.00000000E+00  0.00000000E+00
  0.00000000E+00  0.00000000E+00  0.00000000E+00
  0.00000000E+00  0.00000000E+00  0.00000000E+00
  0.00000000E+00  0.00000000E+00  0.00000000E+00
  0.00000000E+00  0.00000000E+00  0.00000000E+00
  0.00000000E+00  0.00000000E+00  0.00000000E+00
  0.00000000E+00  0.00000000E+00  0.00000000E+00
  0.00000000E+00  0.00000000E+00  0.00000000E+00
  0.00000000E+00  0.00000000E+00  0.00000000E+00
  0.00000000E+00  0.00000000E+00  0.00000000E+00
  0.00000000E+00  0.00000000E+00  0.00000000E+00
  0.00000000E+00  0.00000000E+00  0.00000000E+00
  0.00000000E+00  0.00000000E+00  0.00000000E+00
  0.00000000E+00  0.00000000E+00  0.00000000E+00
  0.00000000E+00  0.00000000E+00  0.00000000E+00
  0.00000000E+00  0.00000000E+00  0.00000000E+00
  0.00000000E+00  0.00000000E+00  0.00000000E+00
  0.00000000E+00  0.00000000E+00  0.00000000E+00
  0.00000000E+00  0.00000000E+00  0.00000000E+00
  0.00000000E+00  0.00000000E+00  0.00000000E+00
  0.00000000E+00  0.00000000E+00  0.00000000E+00
  0.00000000E+00  0.00000000E+00  0.00000000E+00
  0.00000000E+00  0.00000000E+00  0.00000000E+00
  0.00000000E+00  0.00000000E+00  0.00000000E+00
  0.00000000E+00  0.00000000E+00  0.00000000E+00
  0.00000000E+00  0.00000000E+00  0.00000000E+00
  0.00000000E+00  0.00000000E+00  0.00000000E+00
  0.00000000E+00  0.00000000E+00  0.00000000E+00
  0.00000000E+00  0.00000000E+00  0.00000000E+00
  0.00000000E+00  0.00000000E+00  0.00000000E+00
  0.00000000E+00  0.00000000E+00  0.00000000E+00
  0.00000000E+00  0.00000000E+00  0.00000000E+00
  0.00000000E+00  0.00000000E+00  0.00000000E+00
  0.00000000E+00  0.00000000E+00  0.00000000E+00
  0.00000000E+00  0.00000000E+00  0.00000000E+00
  0.00000000E+00  0.00000000E+00  0.00000000E+00
  0.00000000E+00  0.00000000E+00  0.00000000E+00
  0.00000000E+00  0.00000000E+00  0.00000000E+00
  0.00000000E+00  0.00000000E+00  0.00000000E+00
  0.00000000E+00  0.00000000E+00  0.00000000E+00
  0.00000000E+00  0.00000000E+00  0.00000000E+00
  0.00000000E+00  0.00000000E+00  0.00000000E+00
  0.00000000E+00  0.00000000E+00  0.00000000E+00
  0.00000000E+00  0.00000000E+00  0.00000000E+00
  0.00000000E+00  0.00000000E+00  0.00000000E+00
  0.00000000E+00  0.00000000E+00  0.00000000E+00
  0.00000000E+00  0.00000000E+00  0.00000000E+00
  0.00000000E+00  0.00000000E+00  0.00000000E+00
  0.00000000E+00  0.00000000E+00  0.00000000E+00
  0.00000000E+00  0.00000000E+00  0.00000000E+00
  0.00000000E+00  0.00000000E+00  0.00000000E+00
  0.00000000E+00  0.00000000E+00  0.00000000E+00
  0.00000000E+00  0.00000000E+00  0.00000000E+00
  0.00000000E+00  0.00000000E+00  0.00000000E+00
  0.00000000E+00  0.00000000E+00  0.00000000E+00
  0.00000000E+00  0.00000000E+00  0.00000000E+00
  0.00000000E+00  0.00000000E+00  0.00000000E+00
  0.00000000E+00  0.00000000E+00  0.00000000E+00
  0.00000000E+00  0.00000000E+00  0.00000000E+00
  0.00000000E+00  0.00000000E+00  0.00000000E+00
  0.00000000E+00  0.00000000E+00  0.00000000E+00
  0.00000000E+00  0.00000000E+00  0.00000000E+00
  0.00000000E+00  0.00000000E+00  0.00000000E+00
  0.00000000E+00  0.00000000E+00  0.00000000E+00
  0.00000000E+00  0.00000000E+00  0.00000000E+00
  0.00000000E+00  0.00000000E+00  0.00000000E+00
  0.00000000E+00  0.00000000E+00  0.00000000E+00
  0.00000000E+00  0.00000000E+00  0.00000000E+00
  0.00000000E+00  0.00000000E+00  0.00000000E+00
  0.00000000E+00  0.00000000E+00  0.00000000E+00
  0.00000000E+00  0.00000000E+00  0.00000000E+00
  0.00000000E+00  0.00000000E+00  0.00000000E+00
  0.00000000E+00  0.00000000E+00  0.00000000E+00
  0.00000000E+00  0.00000000E+00  0.00000000E+00
  0.00000000E+00  0.00000000E+00  0.00000000E+00
  0.00000000E+00  0.00000000E+00  0.00000000E+00
  0.00000000E+00  0.00000000E+00  0.00000000E+00
  0.00000000E+00  0.00000000E+00  0.00000000E+00
  0.00000000E+00  0.00000000E+00  0.00000000E+00
  0.00000000E+00  0.00000000E+00  0.00000000E+00
  0.00000000E+00  0.00000000E+00  0.00000000E+00
  0.00000000E+00  0.00000000E+00  0.00000000E+00
  0.00000000E+00  0.00000000E+00  0.00000000E+00
  0.00000000E+00  0.00000000E+00  0.00000000E+00
  0.00000000E+00  0.00000000E+00  0.00000000E+00
  0.00000000E+00  0.00000000E+00  0.00000000E+00
  0.00000000E+00  0.00000000E+00  0.00000000E+00
  0.00000000E+00  0.00000000E+00  0.00000000E+00
  0.00000000E+00  0.00000000E+00  0.00000000E+00
  0.00000000E+00  0.00000000E+00  0.00000000E+00
  0.00000000E+00  0.00000000E+00  0.00000000E+00
  0.00000000E+00  0.00000000E+00  0.00000000E+00
  0.00000000E+00  0.00000000E+00  0.00000000E+00
  0.00000000E+00  0.00000000E+00  0.00000000E+00
  0.00000000E+00  0.00000000E+00  0.00000000E+00
  0.00000000E+00  0.00000000E+00  0.00000000E+00
  0.00000000E+00  0.00000000E+00  0.00000000E+00
  0.00000000E+00  0.00000000E+00  0.00000000E+00
  0.00000000E+00  0.00000000E+00  0.00000000E+00
  0.00000000E+00  0.00000000E+00  0.00000000E+00
  0.00000000E+00  0.00000000E+00  0.00000000E+00
  0.00000000E+00  0.00000000E+00  0.00000000E+00
  0.00000000E+00  0.00000000E+00  0.00000000E+00
  0.00000000E+00  0.00000000E+00  0.00000000E+00
  0.00000000E+00  0.00000000E+00  0.00000000E+00
  0.00000000E+00  0.00000000E+00  0.00000000E+00
  0.00000000E+00  0.00000000E+00  0.00000000E+00
  0.00000000E+00  0.00000000E+00  0.00000000E+00
  0.00000000E+00  0.00000000E+00  0.00000000E+00
  0.00000000E+00  0.00000000E+00  0.00000000E+00
  0.00000000E+00  0.00000000E+00  0.00000000E+00
  0.00000000E+00  0.00000000E+00  0.00000000E+00
  0.00000000E+00  0.00000000E+00  0.00000000E+00
  0.00000000E+00  0.00000000E+00  0.00000000E+00
  0.00000000E+00  0.00000000E+00  0.00000000E+00
  0.00000000E+00  0.00000000E+00  0.00000000E+00
  0.00000000E+00  0.00000000E+00  0.00000000E+00
  0.00000000E+00  0.00000000E+00  0.00000000E+00
  0.00000000E+00  0.00000000E+00  0.00000000E+00
  0.00000000E+00  0.00000000E+00  0.00000000E+00
  0.00000000E+00  0.00000000E+00  0.00000000E+00
  0.00000000E+00  0.00000000E+00  0.00000000E+00
  0.00000000E+00  0.00000000E+00  0.00000000E+00
  0.00000000E+00  0.00000000E+00  0.00000000E+00
  0.00000000E+00  0.00000000E+00  0.00000000E+00
  0.00000000E+00  0.00000000E+00  0.00000000E+00
  0.00000000E+00  0.00000000E+00  0.00000000E+00
  0.00000000E+00  0.00000000E+00  0.00000000E+00
  0.00000000E+00  0.00000000E+00  0.00000000E+00
  0.00000000E+00  0.00000000E+00  0.00000000E+00
  0.00000000E+00  0.00000000E+00  0.00000000E+00
  0.00000000E+00  0.00000000E+00  0.00000000E+00
  0.00000000E+00  0.00000000E+00  0.00000000E+00
  0.00000000E+00  0.00000000E+00  0.00000000E+00
  0.00000000E+00  0.00000000E+00  0.00000000E+00
  0.00000000E+00  0.00000000E+00  0.00000000E+00
  0.00000000E+00  0.00000000E+00  0.00000000E+00
  0.00000000E+00  0.00000000E+00  0.00000000E+00
  0.00000000E+00  0.00000000E+00  0.00000000E+00
  0.00000000E+00  0.00000000E+00  0.00000000E+00
  0.00000000E+00  0.00000000E+00  0.00000000E+00
  0.00000000E+00  0.00000000E+00  0.00000000E+00
  0.00000000E+00  0.00000000E+00  0.00000000E+00
  0.00000000E+00  0.00000000E+00  0.00000000E+00
  0.00000000E+00  0.00000000E+00  0.00000000E+00
  0.00000000E+00  0.00000000E+00  0.00000000E+00
  0.00000000E+00  0.00000000E+00  0.00000000E+00
  0.00000000E+00  0.00000000E+00  0.00000000E+00
  0.00000000E+00  0.00000000E+00  0.00000000E+00
  0.00000000E+00  0.00000000E+00  0.00000000E+00
  0.00000000E+00  0.00000000E+00  0.00000000E+00
  0.00000000E+00  0.00000000E+00  0.00000000E+00
  0.00000000E+00  0.00000000E+00  0.00000000E+00
  0.00000000E+00  0.00000000E+00  0.00000000E+00
  0.00000000E+00  0.00000000E+00  0.00000000E+00
  0.00000000E+00  0.00000000E+00  0.00000000E+00
  0.00000000E+00  0.00000000E+00  0.00000000E+00
  0.00000000E+00  0.00000000E+00  0.00000000E+00
  0.00000000E+00  0.00000000E+00  0.00000000E+00
  0.00000000E+00  0.00000000E+00  0.00000000E+00
  0.00000000E+00  0.00000000E+00  0.00000000E+00
  0.00000000E+00  0.00000000E+00  0.00000000E+00
  0.00000000E+00  0.00000000E+00  0.00000000E+00
  0.00000000E+00  0.00000000E+00  0.00000000E+00
  0.00000000E+00  0.00000000E+00  0.00000000E+00
  0.00000000E+00  0.00000000E+00  0.00000000E+00
  0.00000000E+00  0.00000000E+00  0.00000000E+00
  0.00000000E+00  0.00000000E+00  0.00000000E+00
  0.00000000E+00  0.00000000E+00  0.00000000E+00
  0.00000000E+00  0.00000000E+00  0.00000000E+00
  0.00000000E+00  0.00000000E+00  0.00000000E+00
  0.00000000E+00  0.00000000E+00  0.00000000E+00
  0.00000000E+00  0.00000000E+00  0.00000000E+00
  0.00000000E+00  0.00000000E+00  0.00000000E+00
  0.00000000E+00  0.00000000E+00  0.00000000E+00
  0.00000000E+00  0.00000000E+00  0.00000000E+00
  0.00000000E+00  0.00000000E+00  0.00000000E+00
  0.00000000E+00  0.00000000E+00  0.00000000E+00
  0.00000000E+00  0.00000000E+00  0.00000000E+00
  0.00000000E+00  0.00000000E+00  0.00000000E+00
  0.00000000E+00  0.00000000E+00  0.00000000E+00
  0.00000000E+00  0.00000000E+00  0.00000000E+00
