In30 Ga24 Cu36 Ag18 Se108               
   1.0000000000000000     
    16.1005185360216281   -0.0001119981388932   -7.2376781953780149
    -3.2773008474466541   15.7695762758742646   -7.2220553608444273
     0.0020379211823186    0.0023787470832942   21.5403854065842459
   In   Ga   Cu   Ag   Se
    30    24    36    18   108
Direct
  0.1639350824992860  0.4950220187428869  0.9981965956920575
  0.5013422438586730  0.8346010065530294  0.9974375586237088
  0.8336701908689221  0.8323386237571384  0.9967957980380575
  0.1674125653772833  0.1666508295764899  0.9969562250224939
  0.8336386593788347  0.1660547235436880  0.9969582381905795
  0.8322997203481748  0.4955354054383818  0.3352873639392371
  0.1705348317283608  0.8377394625874146  0.3368367148166982
  0.5022601790649688  0.8365572667722034  0.3370392619685418
  0.8335205701869270  0.1715417146313385  0.3377081100716950
  0.1595367414408031  0.4980460648334386  0.6659575752239846
  0.8339956010652543  0.4960638850353121  0.6638928567642068
  0.1662634196865795  0.8375635327852748  0.6658246130596694
  0.8325924566104774  0.1655618912382053  0.6666959700874671
  0.2518915892105653  0.4210289070129107  0.1709791016498627
  0.5811881586339567  0.4135037029966782  0.1651214796697076
  0.9172935736377354  0.4153068947108238  0.1656860557209185
  0.2490444793940014  0.7497468882358973  0.1646628070534746
  0.5820934019646700  0.7485786876094593  0.1667668751974958
  0.9169205394218594  0.7490784863811086  0.1663858640822795
  0.5793373651663032  0.0886228560940268  0.1687227649551843
  0.9232422733305157  0.0884837352502075  0.1723478148423681
  0.2480246295866806  0.4111615419835388  0.4969957462059398
  0.5850649031236301  0.4141236505701968  0.4988960747504692
  0.9129439161929582  0.7532589711970488  0.5028632912915469
  0.2460028985400200  0.4106518153173369  0.8319967948480738
  0.5861659683086842  0.4108458234524264  0.8332707741926271
  0.9163350382361628  0.4149929171402320  0.8341940279105557
  0.2420071853623327  0.7519180190050889  0.8355791356171380
  0.9205149243681774  0.7517731036121376  0.8323003412369943
  0.5832698594236660  0.0871102102032069  0.8302824211420017
  0.5007989632434402  0.4966853492026075  0.0001605326532186
  0.8338627177652285  0.4976226437318161  0.0008442507927313
  0.1642770232369770  0.8369262396711648  0.0032070382042022
  0.4971281070280114  0.1685705753480704  0.9992192393039261
  0.1635589125797736  0.5062912507590340  0.3373144413338025
  0.5048262488206774  0.5002484166314929  0.3358207230249590
  0.8301758962662049  0.8393759504796634  0.3358895378664357
  0.1700318450750657  0.1620091470946505  0.3353382125538928
  0.5036229568687745  0.1639120422173335  0.3346687141500269
  0.5012223595620142  0.4944615854364613  0.6645249138950931
  0.5055664980905377  0.8375366313431272  0.6672741706037399
  0.8285802939303437  0.8355898124746446  0.6648400091586737
  0.1639004782502482  0.1633656124553298  0.6644453501533789
  0.5024725343611394  0.1632062433451296  0.6615171220994824
  0.2519493209802874  0.0792090870475093  0.1652322967878916
  0.9123948482651514  0.4182052095251052  0.4998414304110170
  0.2517320473024682  0.7519341434559550  0.5022274372838211
  0.5873204163033066  0.7540142030035426  0.5036995078492907
  0.2572479343350267  0.0853086647489434  0.5039031574713349
  0.5855640387333807  0.0861909535349739  0.5013209197152619
  0.9126907186225424  0.0805670201834445  0.4997240422796523
  0.5863720250201325  0.7479182967868141  0.8265537302070030
  0.2521077290728186  0.0864919202294985  0.8326228689252204
  0.9113426970339731  0.0819478226119870  0.8309489595919501
  0.9958731682104016  0.3290403142224534  0.9925277782431792
  0.3332530349816523  0.3311444416154217  0.0012541320992696
  0.6692467477081649  0.3366463734388532  0.0044878896028848
  0.0032823361462846  0.6673381853471767  0.0048191555338306
  0.6653027307982669  0.6603227694047433  0.9968407245267841
  0.0009130426745116  0.0028075873822146  0.0006778135900802
  0.3319161419741263  0.0062799698935692  0.0047881588504310
  0.0010570701698143  0.3394959855561481  0.3376756227108970
  0.6666748818872605  0.3351837689947956  0.3366096952042952
  0.0056983461179385  0.0000571452964593  0.3364735241132379
  0.6670629484918535  0.0061169530604133  0.3407637984168304
  0.9971620740348541  0.3294307266645120  0.6636251416445802
  0.3360159676898391  0.3257266668602696  0.6609852232495612
  0.6595711445695969  0.3241684076541702  0.6614354972678953
  0.9910211040274604  0.6614974219495906  0.6586712979672242
  0.6675199389165698  0.6700943090721694  0.6672925842600179
  0.0000196874018883  0.0102910459781427  0.6720643192899658
  0.3329129919760518  0.9987726458501598  0.6595529898700434
  0.6675265334069920  0.9987961089343855  0.6630858947040963
  0.0799371051087050  0.5782698407664100  0.1624993055723820
  0.4191449658617046  0.5751413065677724  0.1640500446959621
  0.7461632042153354  0.5846117888941222  0.1606491675314601
  0.0823450241768171  0.9183410926935167  0.1648616387337896
  0.4159258424431442  0.9235084393826440  0.1670062905118712
  0.4200551989722570  0.2527187270919100  0.1691109406100608
  0.7460343258432971  0.2514872388144695  0.1661701970833747
  0.0830553328854151  0.5813482527000104  0.5005816998038100
  0.7484812689695275  0.5856891688195560  0.5037146400684662
  0.4246011762486646  0.9210474811964104  0.5117191970996089
  0.7499346248399590  0.9213824641648998  0.5031489183082201
  0.4219944336354260  0.2483115824592730  0.5041285050235729
  0.7483492261038336  0.2482408689856967  0.4992522028657334
  0.0784127141786897  0.5826494589449283  0.8332551067391449
  0.7510126296409396  0.9173894461070873  0.8249682007384678
  0.0808769681182753  0.2424785203754141  0.8297683306198707
  0.7496984917624729  0.2483688452406128  0.8321580119612761
  0.3321571054260914  0.6667254354521930  0.9994776030366168
  0.6705075815932986  0.9965113331019708  0.9924495716708321
  0.3332569501766471  0.3193517442206897  0.3290360167653859
  0.9950767716852482  0.6692929911833687  0.3328071577142424
  0.3371515698635505  0.6681477053094653  0.3355902690110284
  0.6691146443513603  0.6641681063528253  0.3362838538133985
  0.3323702389448115  0.0069661909815295  0.3373299518266677
  0.3345892727341848  0.6677452505947983  0.6653082304113838
  0.7530385973650269  0.9158312447977011  0.1729126303916431
  0.0881127802446997  0.2481883251044792  0.1724547360425959
  0.4237954009209943  0.5891661423425703  0.5019290206831570
  0.0797072523003024  0.9247116999786371  0.5014892348516469
  0.0798833148497167  0.2411604909564176  0.4975620449164140
  0.4254090931771586  0.5814470603963429  0.8328253150561764
  0.7471296944298516  0.5809820094488174  0.8286356016756287
  0.0773393903510851  0.9191171779221250  0.8279477462202109
  0.4115678777664655  0.9149659199336639  0.8296464233986356
  0.4119746361954100  0.2471212331041670  0.8281740975920115
  0.1126188563450512  0.4532567477503875  0.0813791921475229
  0.4501579683380044  0.4559975714815963  0.0768324017404325
  0.7859642333654406  0.4623876536967089  0.0817407015600224
  0.1167712632108788  0.7956007808004131  0.0813332346906606
  0.4555611428081150  0.8020721000031727  0.0877802271052559
  0.7820757006451018  0.7835452442957944  0.0765110999980507
  0.1276537047621318  0.1175717663174041  0.0834534785152101
  0.4492795397650369  0.1307452764307300  0.0796527911888703
  0.7917041229669834  0.1337963239847255  0.0895616308023079
  0.1177330948174955  0.4623098349236443  0.4149726560087004
  0.4572891212709180  0.4564057399429871  0.4100718760965805
  0.7838194789946442  0.4589924582955760  0.4241296933772176
  0.1306060848385613  0.7943470856540102  0.4245741612103870
  0.4643737340314118  0.8006663062020252  0.4308467390230888
  0.7880452931246680  0.8036647354661994  0.4183513885228933
  0.1315187842101651  0.1142433842146033  0.4146149070660883
  0.4666791119273483  0.1338192596014878  0.4232198397185343
  0.7885438173419175  0.1248785994152399  0.4232420548314551
  0.1107097666321835  0.4569074843902996  0.7516215150260166
  0.4556462693587306  0.4471940398426568  0.7395651362900608
  0.7804965730278042  0.4438221449633417  0.7404452997428095
  0.1105872576892040  0.7824294125162155  0.7395895329984867
  0.4680587153383655  0.7944739324696286  0.7488277910509424
  0.7862512965313186  0.7936005574014828  0.7449447684596180
  0.1257284323090744  0.1255787475317547  0.7506181734991557
  0.4522153521137895  0.1195800157192366  0.7353472327391017
  0.7854325186875997  0.1228753987242541  0.7534789194390257
  0.2992166900086275  0.6178371483460836  0.0883790038641905
  0.6244868388763720  0.6189729840375620  0.0763222632337275
  0.9614327782421412  0.6167778224793352  0.0796169259162127
  0.2926375643641279  0.9573748177903809  0.0826222760501523
  0.6296628319071900  0.9640689683637049  0.0856025769479984
  0.9668242581367608  0.9611739006341864  0.0827913583797937
  0.3022635719556561  0.2938366900957874  0.0873338566063069
  0.6268272132613646  0.2847108102805649  0.0783635749472680
  0.9659660336662341  0.2917916143856516  0.0784223067693972
  0.2854414192387225  0.6272086230022538  0.4197457807369389
  0.6259075569642718  0.6250330382326723  0.4247066708615250
  0.9635564099807610  0.6238245768298327  0.4237487460045415
  0.3056635282762912  0.9634528735820638  0.4316061752749150
  0.6338806638286414  0.9676162802597759  0.4248626086837746
  0.9509109168544612  0.9630594707420101  0.4108728518617610
  0.2963798480092805  0.2773102438836332  0.4187722093667574
  0.6298054280202265  0.2833728290925421  0.4120867664744807
  0.9608519466568097  0.3047973912223227  0.4201439112497454
  0.2908587775850862  0.6258736128813780  0.7527171368326222
  0.6191441753052302  0.6232236456468669  0.7404817542034081
  0.9674704455356462  0.6231616908419326  0.7470454522718839
  0.2931592895614230  0.9710069987556693  0.7460900764533136
  0.6304039116624978  0.9570655554730507  0.7446743072516284
  0.9475931490503271  0.9631588757493930  0.7429237596087503
  0.2837660552819656  0.2858675555484069  0.7357453450632292
  0.6294433284971248  0.2809415649428146  0.7442355000661607
  0.9685207735270112  0.2901512636522412  0.7502058770625339
  0.2100386890694992  0.3865844687538385  0.2622166016531224
  0.5427569028368282  0.3723794978208375  0.2566527472421285
  0.8747892047104315  0.3628391995508053  0.2489794438158910
  0.1997090195791458  0.6998746188431824  0.2445325295795371
  0.5334512327006067  0.6987764133656356  0.2466615886108841
  0.8612739672106429  0.7112681761243635  0.2504009790961206
  0.2012700432813190  0.0412068680431972  0.2436952990594818
  0.5422318607600900  0.0379491606421567  0.2562715043234789
  0.8856618425231915  0.0423288858855031  0.2598355933295053
  0.2131425155436588  0.3693934507950445  0.5881063401649200
  0.5409617927756258  0.3694060723576555  0.5858837921423614
  0.8758701225552912  0.3634203847483377  0.5764619067946697
  0.2024641114020866  0.7043680959840941  0.5750152718108694
  0.5522104978889359  0.7182437281416512  0.5898350552418705
  0.8677893889550319  0.7071798894541672  0.5878323133980103
  0.2151503640190029  0.0484435602633653  0.5865648751308115
  0.5463145656442165  0.0411443792243205  0.5828927905570609
  0.8763835914669258  0.0343330919577625  0.5804979278759603
  0.2059413109763781  0.3583754008111342  0.9162025165292889
  0.5454597834458639  0.3738799988552586  0.9251189261846235
  0.8701100620977513  0.3696229590663123  0.9192163725343860
  0.1944122093812908  0.7077095031289033  0.9195840565620585
  0.5553430673633812  0.7098107223539358  0.9144004398403709
  0.8840683733102992  0.7021095967912814  0.9190822809989072
  0.2161512639780199  0.0393049819625375  0.9125665570376498
  0.5382058594927841  0.0494405689921820  0.9187189682201122
  0.8773079881030199  0.0323383704905353  0.9115279782463759
  0.0477705819005863  0.5454406650612569  0.2501424693506848
  0.3892785275163746  0.5440951819286752  0.2525337749514591
  0.7118700694267517  0.5422197869000698  0.2430276368110711
  0.0428505893157975  0.8853142702367265  0.2495705831750641
  0.3771035037216066  0.8814518483179583  0.2469590222406737
  0.7071068454038141  0.8837903134154459  0.2626183309252852
  0.0522140220415181  0.2190582358796789  0.2691287628762566
  0.3808062269842125  0.1960335922086855  0.2426983077041172
  0.7076416404372168  0.2214965110705549  0.2517707698632989
  0.0317850025447299  0.5440554398437882  0.5770258734657574
  0.3824216963526084  0.5361624185213358  0.5847077918965269
  0.7079138032430308  0.5516526612274149  0.5859213364578153
  0.0357876691638026  0.8887299539015174  0.5906831876179623
  0.3771608957271795  0.8755089654522763  0.5861774102054653
  0.7089286641506689  0.8783756616114857  0.5816794208131100
  0.0358490134359144  0.2025605116811491  0.5864741594600105
  0.3799598056992437  0.2080274841597216  0.5827680619608273
  0.7036238316214920  0.2117737844380514  0.5795055617171627
  0.0404204255970484  0.5514992828100986  0.9180214369621282
  0.3810692488521568  0.5367714226693749  0.9185179459431154
  0.7138193546309068  0.5435737037823216  0.9234895353070556
  0.0473384298296295  0.8851234412708351  0.9258687937738728
  0.3685164472813227  0.8851568842921154  0.9218349509708972
  0.7077778252150466  0.8696523627012240  0.9000647623591078
  0.0323707848114836  0.2078304088809588  0.9087298234298444
  0.3727182159367715  0.2105828150655142  0.9205025993169329
  0.7085054360537839  0.2220490303285629  0.9176955172015937

  0.00000000E+00  0.00000000E+00  0.00000000E+00
  0.00000000E+00  0.00000000E+00  0.00000000E+00
  0.00000000E+00  0.00000000E+00  0.00000000E+00
  0.00000000E+00  0.00000000E+00  0.00000000E+00
  0.00000000E+00  0.00000000E+00  0.00000000E+00
  0.00000000E+00  0.00000000E+00  0.00000000E+00
  0.00000000E+00  0.00000000E+00  0.00000000E+00
  0.00000000E+00  0.00000000E+00  0.00000000E+00
  0.00000000E+00  0.00000000E+00  0.00000000E+00
  0.00000000E+00  0.00000000E+00  0.00000000E+00
  0.00000000E+00  0.00000000E+00  0.00000000E+00
  0.00000000E+00  0.00000000E+00  0.00000000E+00
  0.00000000E+00  0.00000000E+00  0.00000000E+00
  0.00000000E+00  0.00000000E+00  0.00000000E+00
  0.00000000E+00  0.00000000E+00  0.00000000E+00
  0.00000000E+00  0.00000000E+00  0.00000000E+00
  0.00000000E+00  0.00000000E+00  0.00000000E+00
  0.00000000E+00  0.00000000E+00  0.00000000E+00
  0.00000000E+00  0.00000000E+00  0.00000000E+00
  0.00000000E+00  0.00000000E+00  0.00000000E+00
  0.00000000E+00  0.00000000E+00  0.00000000E+00
  0.00000000E+00  0.00000000E+00  0.00000000E+00
  0.00000000E+00  0.00000000E+00  0.00000000E+00
  0.00000000E+00  0.00000000E+00  0.00000000E+00
  0.00000000E+00  0.00000000E+00  0.00000000E+00
  0.00000000E+00  0.00000000E+00  0.00000000E+00
  0.00000000E+00  0.00000000E+00  0.00000000E+00
  0.00000000E+00  0.00000000E+00  0.00000000E+00
  0.00000000E+00  0.00000000E+00  0.00000000E+00
  0.00000000E+00  0.00000000E+00  0.00000000E+00
  0.00000000E+00  0.00000000E+00  0.00000000E+00
  0.00000000E+00  0.00000000E+00  0.00000000E+00
  0.00000000E+00  0.00000000E+00  0.00000000E+00
  0.00000000E+00  0.00000000E+00  0.00000000E+00
  0.00000000E+00  0.00000000E+00  0.00000000E+00
  0.00000000E+00  0.00000000E+00  0.00000000E+00
  0.00000000E+00  0.00000000E+00  0.00000000E+00
  0.00000000E+00  0.00000000E+00  0.00000000E+00
  0.00000000E+00  0.00000000E+00  0.00000000E+00
  0.00000000E+00  0.00000000E+00  0.00000000E+00
  0.00000000E+00  0.00000000E+00  0.00000000E+00
  0.00000000E+00  0.00000000E+00  0.00000000E+00
  0.00000000E+00  0.00000000E+00  0.00000000E+00
  0.00000000E+00  0.00000000E+00  0.00000000E+00
  0.00000000E+00  0.00000000E+00  0.00000000E+00
  0.00000000E+00  0.00000000E+00  0.00000000E+00
  0.00000000E+00  0.00000000E+00  0.00000000E+00
  0.00000000E+00  0.00000000E+00  0.00000000E+00
  0.00000000E+00  0.00000000E+00  0.00000000E+00
  0.00000000E+00  0.00000000E+00  0.00000000E+00
  0.00000000E+00  0.00000000E+00  0.00000000E+00
  0.00000000E+00  0.00000000E+00  0.00000000E+00
  0.00000000E+00  0.00000000E+00  0.00000000E+00
  0.00000000E+00  0.00000000E+00  0.00000000E+00
  0.00000000E+00  0.00000000E+00  0.00000000E+00
  0.00000000E+00  0.00000000E+00  0.00000000E+00
  0.00000000E+00  0.00000000E+00  0.00000000E+00
  0.00000000E+00  0.00000000E+00  0.00000000E+00
  0.00000000E+00  0.00000000E+00  0.00000000E+00
  0.00000000E+00  0.00000000E+00  0.00000000E+00
  0.00000000E+00  0.00000000E+00  0.00000000E+00
  0.00000000E+00  0.00000000E+00  0.00000000E+00
  0.00000000E+00  0.00000000E+00  0.00000000E+00
  0.00000000E+00  0.00000000E+00  0.00000000E+00
  0.00000000E+00  0.00000000E+00  0.00000000E+00
  0.00000000E+00  0.00000000E+00  0.00000000E+00
  0.00000000E+00  0.00000000E+00  0.00000000E+00
  0.00000000E+00  0.00000000E+00  0.00000000E+00
  0.00000000E+00  0.00000000E+00  0.00000000E+00
  0.00000000E+00  0.00000000E+00  0.00000000E+00
  0.00000000E+00  0.00000000E+00  0.00000000E+00
  0.00000000E+00  0.00000000E+00  0.00000000E+00
  0.00000000E+00  0.00000000E+00  0.00000000E+00
  0.00000000E+00  0.00000000E+00  0.00000000E+00
  0.00000000E+00  0.00000000E+00  0.00000000E+00
  0.00000000E+00  0.00000000E+00  0.00000000E+00
  0.00000000E+00  0.00000000E+00  0.00000000E+00
  0.00000000E+00  0.00000000E+00  0.00000000E+00
  0.00000000E+00  0.00000000E+00  0.00000000E+00
  0.00000000E+00  0.00000000E+00  0.00000000E+00
  0.00000000E+00  0.00000000E+00  0.00000000E+00
  0.00000000E+00  0.00000000E+00  0.00000000E+00
  0.00000000E+00  0.00000000E+00  0.00000000E+00
  0.00000000E+00  0.00000000E+00  0.00000000E+00
  0.00000000E+00  0.00000000E+00  0.00000000E+00
  0.00000000E+00  0.00000000E+00  0.00000000E+00
  0.00000000E+00  0.00000000E+00  0.00000000E+00
  0.00000000E+00  0.00000000E+00  0.00000000E+00
  0.00000000E+00  0.00000000E+00  0.00000000E+00
  0.00000000E+00  0.00000000E+00  0.00000000E+00
  0.00000000E+00  0.00000000E+00  0.00000000E+00
  0.00000000E+00  0.00000000E+00  0.00000000E+00
  0.00000000E+00  0.00000000E+00  0.00000000E+00
  0.00000000E+00  0.00000000E+00  0.00000000E+00
  0.00000000E+00  0.00000000E+00  0.00000000E+00
  0.00000000E+00  0.00000000E+00  0.00000000E+00
  0.00000000E+00  0.00000000E+00  0.00000000E+00
  0.00000000E+00  0.00000000E+00  0.00000000E+00
  0.00000000E+00  0.00000000E+00  0.00000000E+00
  0.00000000E+00  0.00000000E+00  0.00000000E+00
  0.00000000E+00  0.00000000E+00  0.00000000E+00
  0.00000000E+00  0.00000000E+00  0.00000000E+00
  0.00000000E+00  0.00000000E+00  0.00000000E+00
  0.00000000E+00  0.00000000E+00  0.00000000E+00
  0.00000000E+00  0.00000000E+00  0.00000000E+00
  0.00000000E+00  0.00000000E+00  0.00000000E+00
  0.00000000E+00  0.00000000E+00  0.00000000E+00
  0.00000000E+00  0.00000000E+00  0.00000000E+00
  0.00000000E+00  0.00000000E+00  0.00000000E+00
  0.00000000E+00  0.00000000E+00  0.00000000E+00
  0.00000000E+00  0.00000000E+00  0.00000000E+00
  0.00000000E+00  0.00000000E+00  0.00000000E+00
  0.00000000E+00  0.00000000E+00  0.00000000E+00
  0.00000000E+00  0.00000000E+00  0.00000000E+00
  0.00000000E+00  0.00000000E+00  0.00000000E+00
  0.00000000E+00  0.00000000E+00  0.00000000E+00
  0.00000000E+00  0.00000000E+00  0.00000000E+00
  0.00000000E+00  0.00000000E+00  0.00000000E+00
  0.00000000E+00  0.00000000E+00  0.00000000E+00
  0.00000000E+00  0.00000000E+00  0.00000000E+00
  0.00000000E+00  0.00000000E+00  0.00000000E+00
  0.00000000E+00  0.00000000E+00  0.00000000E+00
  0.00000000E+00  0.00000000E+00  0.00000000E+00
  0.00000000E+00  0.00000000E+00  0.00000000E+00
  0.00000000E+00  0.00000000E+00  0.00000000E+00
  0.00000000E+00  0.00000000E+00  0.00000000E+00
  0.00000000E+00  0.00000000E+00  0.00000000E+00
  0.00000000E+00  0.00000000E+00  0.00000000E+00
  0.00000000E+00  0.00000000E+00  0.00000000E+00
  0.00000000E+00  0.00000000E+00  0.00000000E+00
  0.00000000E+00  0.00000000E+00  0.00000000E+00
  0.00000000E+00  0.00000000E+00  0.00000000E+00
  0.00000000E+00  0.00000000E+00  0.00000000E+00
  0.00000000E+00  0.00000000E+00  0.00000000E+00
  0.00000000E+00  0.00000000E+00  0.00000000E+00
  0.00000000E+00  0.00000000E+00  0.00000000E+00
  0.00000000E+00  0.00000000E+00  0.00000000E+00
  0.00000000E+00  0.00000000E+00  0.00000000E+00
  0.00000000E+00  0.00000000E+00  0.00000000E+00
  0.00000000E+00  0.00000000E+00  0.00000000E+00
  0.00000000E+00  0.00000000E+00  0.00000000E+00
  0.00000000E+00  0.00000000E+00  0.00000000E+00
  0.00000000E+00  0.00000000E+00  0.00000000E+00
  0.00000000E+00  0.00000000E+00  0.00000000E+00
  0.00000000E+00  0.00000000E+00  0.00000000E+00
  0.00000000E+00  0.00000000E+00  0.00000000E+00
  0.00000000E+00  0.00000000E+00  0.00000000E+00
  0.00000000E+00  0.00000000E+00  0.00000000E+00
  0.00000000E+00  0.00000000E+00  0.00000000E+00
  0.00000000E+00  0.00000000E+00  0.00000000E+00
  0.00000000E+00  0.00000000E+00  0.00000000E+00
  0.00000000E+00  0.00000000E+00  0.00000000E+00
  0.00000000E+00  0.00000000E+00  0.00000000E+00
  0.00000000E+00  0.00000000E+00  0.00000000E+00
  0.00000000E+00  0.00000000E+00  0.00000000E+00
  0.00000000E+00  0.00000000E+00  0.00000000E+00
  0.00000000E+00  0.00000000E+00  0.00000000E+00
  0.00000000E+00  0.00000000E+00  0.00000000E+00
  0.00000000E+00  0.00000000E+00  0.00000000E+00
  0.00000000E+00  0.00000000E+00  0.00000000E+00
  0.00000000E+00  0.00000000E+00  0.00000000E+00
  0.00000000E+00  0.00000000E+00  0.00000000E+00
  0.00000000E+00  0.00000000E+00  0.00000000E+00
  0.00000000E+00  0.00000000E+00  0.00000000E+00
  0.00000000E+00  0.00000000E+00  0.00000000E+00
  0.00000000E+00  0.00000000E+00  0.00000000E+00
  0.00000000E+00  0.00000000E+00  0.00000000E+00
  0.00000000E+00  0.00000000E+00  0.00000000E+00
  0.00000000E+00  0.00000000E+00  0.00000000E+00
  0.00000000E+00  0.00000000E+00  0.00000000E+00
  0.00000000E+00  0.00000000E+00  0.00000000E+00
  0.00000000E+00  0.00000000E+00  0.00000000E+00
  0.00000000E+00  0.00000000E+00  0.00000000E+00
  0.00000000E+00  0.00000000E+00  0.00000000E+00
  0.00000000E+00  0.00000000E+00  0.00000000E+00
  0.00000000E+00  0.00000000E+00  0.00000000E+00
  0.00000000E+00  0.00000000E+00  0.00000000E+00
  0.00000000E+00  0.00000000E+00  0.00000000E+00
  0.00000000E+00  0.00000000E+00  0.00000000E+00
  0.00000000E+00  0.00000000E+00  0.00000000E+00
  0.00000000E+00  0.00000000E+00  0.00000000E+00
  0.00000000E+00  0.00000000E+00  0.00000000E+00
  0.00000000E+00  0.00000000E+00  0.00000000E+00
  0.00000000E+00  0.00000000E+00  0.00000000E+00
  0.00000000E+00  0.00000000E+00  0.00000000E+00
  0.00000000E+00  0.00000000E+00  0.00000000E+00
  0.00000000E+00  0.00000000E+00  0.00000000E+00
  0.00000000E+00  0.00000000E+00  0.00000000E+00
  0.00000000E+00  0.00000000E+00  0.00000000E+00
  0.00000000E+00  0.00000000E+00  0.00000000E+00
  0.00000000E+00  0.00000000E+00  0.00000000E+00
  0.00000000E+00  0.00000000E+00  0.00000000E+00
  0.00000000E+00  0.00000000E+00  0.00000000E+00
  0.00000000E+00  0.00000000E+00  0.00000000E+00
  0.00000000E+00  0.00000000E+00  0.00000000E+00
  0.00000000E+00  0.00000000E+00  0.00000000E+00
  0.00000000E+00  0.00000000E+00  0.00000000E+00
  0.00000000E+00  0.00000000E+00  0.00000000E+00
  0.00000000E+00  0.00000000E+00  0.00000000E+00
  0.00000000E+00  0.00000000E+00  0.00000000E+00
  0.00000000E+00  0.00000000E+00  0.00000000E+00
  0.00000000E+00  0.00000000E+00  0.00000000E+00
  0.00000000E+00  0.00000000E+00  0.00000000E+00
  0.00000000E+00  0.00000000E+00  0.00000000E+00
  0.00000000E+00  0.00000000E+00  0.00000000E+00
  0.00000000E+00  0.00000000E+00  0.00000000E+00
  0.00000000E+00  0.00000000E+00  0.00000000E+00
  0.00000000E+00  0.00000000E+00  0.00000000E+00
  0.00000000E+00  0.00000000E+00  0.00000000E+00
  0.00000000E+00  0.00000000E+00  0.00000000E+00
  0.00000000E+00  0.00000000E+00  0.00000000E+00
  0.00000000E+00  0.00000000E+00  0.00000000E+00
  0.00000000E+00  0.00000000E+00  0.00000000E+00
  0.00000000E+00  0.00000000E+00  0.00000000E+00
  0.00000000E+00  0.00000000E+00  0.00000000E+00
  0.00000000E+00  0.00000000E+00  0.00000000E+00
