In30 Ga24 Cu42 Ag12 Se108               
   1.0000000000000000     
    16.0415474945090644   -0.0048067719967098   -7.1173918144951829
    -3.1728843183844959   15.7243555316226029   -7.1027206927181634
    -0.0780077573856624   -0.0941743119840023   21.4722776914691948
   In   Ga   Cu   Ag   Se
    30    24    42    12   108
Direct
  0.5002059543932234  0.5063675465973532  0.9995581355087921
  0.8305327555508768  0.5007663562192519  0.9967282979678558
  0.5007326218267423  0.8332424525981139  0.0015059904797781
  0.1642609437217786  0.1685704768854492  0.0017049670181493
  0.5007026183315304  0.1632298254318840  0.0005607270835029
  0.4989102685512918  0.5038199512142398  0.3357576554705304
  0.8330918691953784  0.5018185919922047  0.3359082811977174
  0.1682930598205985  0.8343021923181908  0.3362528787221919
  0.8340508818590209  0.8349235210105945  0.3352431651213763
  0.1589612825900772  0.1647856598969142  0.3293832935904533
  0.8371285018695644  0.1674632867261323  0.3344703635700981
  0.1619865212730502  0.5016779160223876  0.6648661289391740
  0.5022400549399819  0.5042033353894126  0.6662649339311884
  0.8333990296814378  0.5034434386695210  0.6644667239732911
  0.1649736949848020  0.1668415344250462  0.6656660973889714
  0.5003872442817610  0.1654444928606082  0.6696406421610916
  0.5822072864713519  0.4192252188338870  0.1683174579334263
  0.9182070452962350  0.4158920291563462  0.1674043083939196
  0.2524169828729868  0.7484404014278780  0.1652019618771234
  0.9149917990691776  0.7542255402334277  0.1652545112697510
  0.2488161930462880  0.4187489873653192  0.4994074574844163
  0.9180100420354051  0.7504239685352871  0.5053948524314293
  0.2490521560155941  0.0837000870560374  0.5029783986956602
  0.5868374872274487  0.0782075406960701  0.4990226465452992
  0.2462240297727618  0.4196322176133549  0.8333302591711416
  0.9212562390201171  0.4172911886476456  0.8338575814850913
  0.5865868102305640  0.7523925824810576  0.8327846301367572
  0.9164839698813267  0.7512948250347407  0.8345254907041664
  0.2506216902683320  0.0800586465841278  0.8289717242657204
  0.5826116365246889  0.0742388040793358  0.8314388443013954
  0.1668790527829742  0.5005101076437413  0.0002348828453407
  0.1666659229229239  0.8340385089471596  0.0023059660818987
  0.8329773539483796  0.8360589636364963  0.0004744384579496
  0.8371474469089151  0.1599318815249902  0.9970136932004934
  0.1706305664195185  0.5050221280822029  0.3370548891928351
  0.5027310322703542  0.8259436641314934  0.3338977200830371
  0.5005701422715134  0.1701454379294631  0.3317567309302021
  0.1711220554131572  0.8264309696170002  0.6638410581050280
  0.4999610278084887  0.8285481752578647  0.6615418141041616
  0.8261741661542246  0.8309536382498450  0.6667069503291074
  0.8339399448047047  0.1626019611142269  0.6638008491838150
  0.2515880193312157  0.4221212355404376  0.1684195861916891
  0.5829016869549406  0.7505004196347116  0.1675208549531035
  0.2509062526302301  0.0798908667005307  0.1672162256594163
  0.5831814437146221  0.0870490379708571  0.1703040332758476
  0.9134618795341893  0.0782802301998302  0.1630542643643622
  0.5824959694148859  0.4182372609347027  0.4979551917950360
  0.9146316456448460  0.4185731912348629  0.4993262328136652
  0.2513171194876875  0.7487229217973379  0.5013635880972771
  0.5854408182879709  0.7510487114706734  0.5009549888015812
  0.9165001429749466  0.0853256333480559  0.5015438432441925
  0.5801789488222653  0.4190693182621814  0.8316993677433828
  0.2505711689629422  0.7474708282979563  0.8312175241973421
  0.9095598998475865  0.0806683787506444  0.8301957014477424
  0.9996432287353585  0.3276068330571462  0.9951072016856912
  0.0010766411810295  0.6704039704910301  0.9966878770812144
  0.3300621410445075  0.6706380725110179  0.9992466570187872
  0.6658979363081414  0.6684863046058140  0.9999532348001523
  0.9972153674836619  0.9993983001587239  0.0019013518826441
  0.6690383744107962  0.9974129285892275  0.0015249396803938
  0.0010432307726518  0.3379620793339839  0.3378268221065852
  0.3352926600269797  0.3357190334437377  0.3289230400512366
  0.6665021224444558  0.3361849408942206  0.3406185563457313
  0.0052490478408629  0.6680113548146664  0.3377652429279223
  0.3384810747841414  0.6664968677394043  0.3392808296673806
  0.6640999407737453  0.6706382816204766  0.3350678126305482
  0.9971099136075665  0.0016241432910959  0.3341902737525544
  0.9950262637970866  0.3317105390636286  0.6619255352630233
  0.3340945173754264  0.3395233007734646  0.6706122046467229
  0.9992705072330992  0.6648139380556941  0.6647855742086648
  0.3314827490869874  0.6702559106066985  0.6674823971588566
  0.6627483983617424  0.6672682828062761  0.6600773184574820
  0.3339102511595229  0.9897738382115406  0.6631547269037341
  0.6696236039812149  0.9964171675053848  0.6668422586571126
  0.4156387830566928  0.5901247835248569  0.1686775370621660
  0.7503044410148618  0.5941236182161092  0.1729750272759318
  0.0775479093160740  0.9136244842785644  0.1606102128996980
  0.4220782539486763  0.9155582238167881  0.1695391592328832
  0.7476317655163456  0.9182234485797949  0.1615529935231095
  0.4188062381221442  0.2519681855174483  0.1760255068338026
  0.0851090340324561  0.5835968554416695  0.4988618865205936
  0.4160540746325552  0.5855709350556992  0.4995963167367350
  0.7493902701794752  0.5863819518496314  0.5012489973929490
  0.0829133237116935  0.9153083256337524  0.4998969583142170
  0.4233029982344405  0.9089568642481822  0.5026511963587268
  0.7503333895168467  0.9137835203817417  0.5041362868857959
  0.0800062185057158  0.2522431372573024  0.5007465914813807
  0.7500204240266299  0.2516258586541795  0.4989980769790918
  0.0889514151958650  0.5890145322884379  0.8392980929168488
  0.4158737047108119  0.5838517724735723  0.8306365130116617
  0.7486524727678869  0.5907992115206824  0.8389612972988942
  0.4156208824636352  0.9099900948680926  0.8264102862572358
  0.7517366819578797  0.9166801358426397  0.8328774803000414
  0.0730114503033050  0.2523085810204151  0.8325734489066221
  0.4161796261339248  0.2484652083418553  0.8283968980885845
  0.7556998928864544  0.2448192898005885  0.8318356653809786
  0.3279970582762886  0.3313449623685116  0.0008223015246003
  0.6721172200738010  0.3339680718044207  0.9899949145956768
  0.3396519876895638  0.9934998216623896  0.0068219085279040
  0.3291680416464757  0.9948660616736476  0.3287122323423830
  0.6638540850741776  0.9976934659005252  0.3311949228220712
  0.6723826745904162  0.3337523241318365  0.6725615607675053
  0.9971085310227323  0.9976726788218713  0.6667807758404152
  0.0837534920885687  0.5778581101425786  0.1627070371497581
  0.0878965383628412  0.2541262531308774  0.1716546806444441
  0.7465818311412207  0.2395354489285779  0.1635367362706432
  0.4129512707052783  0.2485672357248276  0.4948561225182999
  0.0829208201521112  0.9082747004909777  0.8280137242883683
  0.1244699511878977  0.4464161960254813  0.0751955465624405
  0.4525689437893803  0.4685041711453266  0.0872239808925173
  0.7897386007197795  0.4726368226042510  0.0921158774817741
  0.1183021553750123  0.7929250069237170  0.0800988185756353
  0.4546019898485838  0.7895747819289838  0.0882254115554417
  0.7808651133902060  0.7953348875718262  0.0765920390942583
  0.1237462890765997  0.1151494986018378  0.0853514124715034
  0.4604985399459238  0.1323130933053420  0.0952757245173004
  0.7927029819395628  0.1149413857356620  0.0755969342490204
  0.1178314330711459  0.4618465729980841  0.4119743165709266
  0.4534089889213675  0.4581096474510318  0.4214114300760059
  0.7858329634239212  0.4586164108725583  0.4224508135238310
  0.1235540141946387  0.7902346224325001  0.4233735451534955
  0.4594337651102336  0.7878250940775189  0.4172544160525149
  0.7837846546619929  0.7925664560678172  0.4197232339229302
  0.1135527587970060  0.1264586355045552  0.4185181991337714
  0.4615431312037401  0.1237823958251454  0.4098149395309250
  0.7941023594514149  0.1285894520636504  0.4240606193924208
  0.1093650472085770  0.4594738099720885  0.7484199401447640
  0.4546847415685207  0.4594693456786416  0.7518349272846763
  0.7928111018156656  0.4732939680565380  0.7593465360216811
  0.1266641659552121  0.7796088718527159  0.7411725229627990
  0.4529495398766272  0.7911155614117078  0.7422164554142086
  0.7809757766762360  0.7911251609396572  0.7459938435129558
  0.1197636135872102  0.1347885867679892  0.7564847547216971
  0.4464066705795133  0.1183414219744208  0.7495392480529972
  0.7876385065355862  0.1218222431395901  0.7452807554338463
  0.2947706236906100  0.6177056182240293  0.0762750318717522
  0.6345728875805960  0.6351735198525716  0.0887669929528698
  0.9625602453446547  0.6295408090451318  0.0768493061666859
  0.2938159256635799  0.9520450051568901  0.0925963765979887
  0.6303938114739935  0.9684863698134691  0.0887800563152936
  0.9584405140479220  0.9573695207281716  0.0824425355631249
  0.2989214897517485  0.2963883140912600  0.0983679447603620
  0.6278608417359450  0.2945228965323707  0.0796562865765509
  0.9562044158545291  0.2859080160175367  0.0730149821294077
  0.2952723192469549  0.6273206286969142  0.4191922848123468
  0.6333780307319827  0.6330388269392060  0.4214800857631644
  0.9683646230778891  0.6269500403857222  0.4189405405416053
  0.3057077545025564  0.9570754155250611  0.4265455163795195
  0.6284387996548304  0.9430264477415733  0.4159505389052356
  0.9668842317136566  0.9661810675654436  0.4232410418870600
  0.2893574103539649  0.2939402072203521  0.4054413616419339
  0.6264099137983905  0.2926246729211570  0.4188923871120025
  0.9666511039976484  0.3019137631285034  0.4225769561872141
  0.2986417053440817  0.6292843350461652  0.7516184374761536
  0.6384024710475060  0.6284058704511253  0.7485796491622594
  0.9718389708446296  0.6275676439302416  0.7524154965377150
  0.2955759266401046  0.9471083203903135  0.7433292029510383
  0.6285346020202240  0.9467523519108667  0.7428563585857759
  0.9463504267899481  0.9543245774247566  0.7495968931135621
  0.2997112436683622  0.2942264187577024  0.7504001082926095
  0.6324512668730051  0.2955273625617707  0.7631255573861679
  0.9584091472759582  0.2840856127071731  0.7410323359195274
  0.2167830483375539  0.3862105694655469  0.2559781127550309
  0.5433610609577997  0.3682103704564312  0.2547050097505306
  0.8782567355113144  0.3693076355039153  0.2540379668491468
  0.2185119620491633  0.7047675504682687  0.2563767859478361
  0.5427497330519131  0.7047388175956613  0.2493624130520260
  0.8817339956785730  0.7022018295296348  0.2538429986350579
  0.1991397369041223  0.0333964165495644  0.2396302033942703
  0.5343203959252989  0.0438578112443224  0.2461336373985858
  0.8747072614422535  0.0322247549869275  0.2441760106175153
  0.2077154627906737  0.3662168410573372  0.5838920781814423
  0.5463180500230749  0.3758644450679824  0.5793235215762493
  0.8747577974358620  0.3689199196786745  0.5775218569825356
  0.2094198685120006  0.7024165886014941  0.5810054665503657
  0.5400018157938149  0.7046376424867518  0.5788456718017088
  0.8721323814809878  0.7057298029219155  0.5915448120604339
  0.2088112491783107  0.0293605958568151  0.5859090866555263
  0.5439030503768052  0.0305850640083491  0.5852015543039286
  0.8672225405804070  0.0383791366205060  0.5765715593855063
  0.1940810689951746  0.3720981608464911  0.9143042950380575
  0.5343619045380024  0.3716616160335064  0.9062348177182002
  0.8760838463906211  0.3651295629631051  0.9160642241486627
  0.2095903690484562  0.7114606385142892  0.9178229867488668
  0.5418114026205529  0.6991397221818048  0.9148742387697624
  0.8723659857998811  0.7080140167257554  0.9224229792251535
  0.2120230968814525  0.0400763378645692  0.9188176171662192
  0.5411155984758622  0.0250000857367567  0.9169869391155174
  0.8766132308110812  0.0358280212592774  0.9148928895993151
  0.0482918582447809  0.5484249857898931  0.2597618486869280
  0.3699447815487318  0.5497988607659750  0.2468798803909564
  0.7081554706226427  0.5558315743437987  0.2534184029290714
  0.0437823215435102  0.8885416132092061  0.2519702636910637
  0.3890565619499995  0.8727363979999723  0.2517752485139226
  0.7054274334468928  0.8717707030033424  0.2385310184259950
  0.0252552481938366  0.2098917327155476  0.2485092316567830
  0.3724189364859072  0.2087264855506703  0.2513021787906737
  0.7005364101211953  0.2127267882952708  0.2558320329616350
  0.0329412370850122  0.5464141239021174  0.5754164723460633
  0.3742810980247171  0.5553883110548625  0.5844129035309535
  0.7001805080935100  0.5463905676487713  0.5768225254899662
  0.0535031654290634  0.8756754134486755  0.5865080519837136
  0.3764651920045736  0.8721138949079403  0.5815725872693278
  0.7079871228276602  0.8753698427955214  0.5841109750058067
  0.0346001027990397  0.2126684916871255  0.5791155938285328
  0.3739185509385763  0.2196183578245652  0.5897453868612246
  0.7179370706754540  0.2091963146606233  0.5831353326295385
  0.0502847664631219  0.5522813457133608  0.9229310638290400
  0.3720034585297967  0.5561751639935366  0.9150640379835124
  0.6983850581095012  0.5470232017338148  0.9120242865873394
  0.0467431504891920  0.8825123930634788  0.9274232825327147
  0.3716082372444944  0.8697942540528558  0.9051595542838129
  0.7164338441807772  0.8846929345869015  0.9206771310597688
  0.0310677862727360  0.2062179388991439  0.9085825775190628
  0.3786806844739061  0.2122705739087394  0.9115911844531297
  0.7186686445898829  0.2006217192790913  0.9123337016423321

  0.00000000E+00  0.00000000E+00  0.00000000E+00
  0.00000000E+00  0.00000000E+00  0.00000000E+00
  0.00000000E+00  0.00000000E+00  0.00000000E+00
  0.00000000E+00  0.00000000E+00  0.00000000E+00
  0.00000000E+00  0.00000000E+00  0.00000000E+00
  0.00000000E+00  0.00000000E+00  0.00000000E+00
  0.00000000E+00  0.00000000E+00  0.00000000E+00
  0.00000000E+00  0.00000000E+00  0.00000000E+00
  0.00000000E+00  0.00000000E+00  0.00000000E+00
  0.00000000E+00  0.00000000E+00  0.00000000E+00
  0.00000000E+00  0.00000000E+00  0.00000000E+00
  0.00000000E+00  0.00000000E+00  0.00000000E+00
  0.00000000E+00  0.00000000E+00  0.00000000E+00
  0.00000000E+00  0.00000000E+00  0.00000000E+00
  0.00000000E+00  0.00000000E+00  0.00000000E+00
  0.00000000E+00  0.00000000E+00  0.00000000E+00
  0.00000000E+00  0.00000000E+00  0.00000000E+00
  0.00000000E+00  0.00000000E+00  0.00000000E+00
  0.00000000E+00  0.00000000E+00  0.00000000E+00
  0.00000000E+00  0.00000000E+00  0.00000000E+00
  0.00000000E+00  0.00000000E+00  0.00000000E+00
  0.00000000E+00  0.00000000E+00  0.00000000E+00
  0.00000000E+00  0.00000000E+00  0.00000000E+00
  0.00000000E+00  0.00000000E+00  0.00000000E+00
  0.00000000E+00  0.00000000E+00  0.00000000E+00
  0.00000000E+00  0.00000000E+00  0.00000000E+00
  0.00000000E+00  0.00000000E+00  0.00000000E+00
  0.00000000E+00  0.00000000E+00  0.00000000E+00
  0.00000000E+00  0.00000000E+00  0.00000000E+00
  0.00000000E+00  0.00000000E+00  0.00000000E+00
  0.00000000E+00  0.00000000E+00  0.00000000E+00
  0.00000000E+00  0.00000000E+00  0.00000000E+00
  0.00000000E+00  0.00000000E+00  0.00000000E+00
  0.00000000E+00  0.00000000E+00  0.00000000E+00
  0.00000000E+00  0.00000000E+00  0.00000000E+00
  0.00000000E+00  0.00000000E+00  0.00000000E+00
  0.00000000E+00  0.00000000E+00  0.00000000E+00
  0.00000000E+00  0.00000000E+00  0.00000000E+00
  0.00000000E+00  0.00000000E+00  0.00000000E+00
  0.00000000E+00  0.00000000E+00  0.00000000E+00
  0.00000000E+00  0.00000000E+00  0.00000000E+00
  0.00000000E+00  0.00000000E+00  0.00000000E+00
  0.00000000E+00  0.00000000E+00  0.00000000E+00
  0.00000000E+00  0.00000000E+00  0.00000000E+00
  0.00000000E+00  0.00000000E+00  0.00000000E+00
  0.00000000E+00  0.00000000E+00  0.00000000E+00
  0.00000000E+00  0.00000000E+00  0.00000000E+00
  0.00000000E+00  0.00000000E+00  0.00000000E+00
  0.00000000E+00  0.00000000E+00  0.00000000E+00
  0.00000000E+00  0.00000000E+00  0.00000000E+00
  0.00000000E+00  0.00000000E+00  0.00000000E+00
  0.00000000E+00  0.00000000E+00  0.00000000E+00
  0.00000000E+00  0.00000000E+00  0.00000000E+00
  0.00000000E+00  0.00000000E+00  0.00000000E+00
  0.00000000E+00  0.00000000E+00  0.00000000E+00
  0.00000000E+00  0.00000000E+00  0.00000000E+00
  0.00000000E+00  0.00000000E+00  0.00000000E+00
  0.00000000E+00  0.00000000E+00  0.00000000E+00
  0.00000000E+00  0.00000000E+00  0.00000000E+00
  0.00000000E+00  0.00000000E+00  0.00000000E+00
  0.00000000E+00  0.00000000E+00  0.00000000E+00
  0.00000000E+00  0.00000000E+00  0.00000000E+00
  0.00000000E+00  0.00000000E+00  0.00000000E+00
  0.00000000E+00  0.00000000E+00  0.00000000E+00
  0.00000000E+00  0.00000000E+00  0.00000000E+00
  0.00000000E+00  0.00000000E+00  0.00000000E+00
  0.00000000E+00  0.00000000E+00  0.00000000E+00
  0.00000000E+00  0.00000000E+00  0.00000000E+00
  0.00000000E+00  0.00000000E+00  0.00000000E+00
  0.00000000E+00  0.00000000E+00  0.00000000E+00
  0.00000000E+00  0.00000000E+00  0.00000000E+00
  0.00000000E+00  0.00000000E+00  0.00000000E+00
  0.00000000E+00  0.00000000E+00  0.00000000E+00
  0.00000000E+00  0.00000000E+00  0.00000000E+00
  0.00000000E+00  0.00000000E+00  0.00000000E+00
  0.00000000E+00  0.00000000E+00  0.00000000E+00
  0.00000000E+00  0.00000000E+00  0.00000000E+00
  0.00000000E+00  0.00000000E+00  0.00000000E+00
  0.00000000E+00  0.00000000E+00  0.00000000E+00
  0.00000000E+00  0.00000000E+00  0.00000000E+00
  0.00000000E+00  0.00000000E+00  0.00000000E+00
  0.00000000E+00  0.00000000E+00  0.00000000E+00
  0.00000000E+00  0.00000000E+00  0.00000000E+00
  0.00000000E+00  0.00000000E+00  0.00000000E+00
  0.00000000E+00  0.00000000E+00  0.00000000E+00
  0.00000000E+00  0.00000000E+00  0.00000000E+00
  0.00000000E+00  0.00000000E+00  0.00000000E+00
  0.00000000E+00  0.00000000E+00  0.00000000E+00
  0.00000000E+00  0.00000000E+00  0.00000000E+00
  0.00000000E+00  0.00000000E+00  0.00000000E+00
  0.00000000E+00  0.00000000E+00  0.00000000E+00
  0.00000000E+00  0.00000000E+00  0.00000000E+00
  0.00000000E+00  0.00000000E+00  0.00000000E+00
  0.00000000E+00  0.00000000E+00  0.00000000E+00
  0.00000000E+00  0.00000000E+00  0.00000000E+00
  0.00000000E+00  0.00000000E+00  0.00000000E+00
  0.00000000E+00  0.00000000E+00  0.00000000E+00
  0.00000000E+00  0.00000000E+00  0.00000000E+00
  0.00000000E+00  0.00000000E+00  0.00000000E+00
  0.00000000E+00  0.00000000E+00  0.00000000E+00
  0.00000000E+00  0.00000000E+00  0.00000000E+00
  0.00000000E+00  0.00000000E+00  0.00000000E+00
  0.00000000E+00  0.00000000E+00  0.00000000E+00
  0.00000000E+00  0.00000000E+00  0.00000000E+00
  0.00000000E+00  0.00000000E+00  0.00000000E+00
  0.00000000E+00  0.00000000E+00  0.00000000E+00
  0.00000000E+00  0.00000000E+00  0.00000000E+00
  0.00000000E+00  0.00000000E+00  0.00000000E+00
  0.00000000E+00  0.00000000E+00  0.00000000E+00
  0.00000000E+00  0.00000000E+00  0.00000000E+00
  0.00000000E+00  0.00000000E+00  0.00000000E+00
  0.00000000E+00  0.00000000E+00  0.00000000E+00
  0.00000000E+00  0.00000000E+00  0.00000000E+00
  0.00000000E+00  0.00000000E+00  0.00000000E+00
  0.00000000E+00  0.00000000E+00  0.00000000E+00
  0.00000000E+00  0.00000000E+00  0.00000000E+00
  0.00000000E+00  0.00000000E+00  0.00000000E+00
  0.00000000E+00  0.00000000E+00  0.00000000E+00
  0.00000000E+00  0.00000000E+00  0.00000000E+00
  0.00000000E+00  0.00000000E+00  0.00000000E+00
  0.00000000E+00  0.00000000E+00  0.00000000E+00
  0.00000000E+00  0.00000000E+00  0.00000000E+00
  0.00000000E+00  0.00000000E+00  0.00000000E+00
  0.00000000E+00  0.00000000E+00  0.00000000E+00
  0.00000000E+00  0.00000000E+00  0.00000000E+00
  0.00000000E+00  0.00000000E+00  0.00000000E+00
  0.00000000E+00  0.00000000E+00  0.00000000E+00
  0.00000000E+00  0.00000000E+00  0.00000000E+00
  0.00000000E+00  0.00000000E+00  0.00000000E+00
  0.00000000E+00  0.00000000E+00  0.00000000E+00
  0.00000000E+00  0.00000000E+00  0.00000000E+00
  0.00000000E+00  0.00000000E+00  0.00000000E+00
  0.00000000E+00  0.00000000E+00  0.00000000E+00
  0.00000000E+00  0.00000000E+00  0.00000000E+00
  0.00000000E+00  0.00000000E+00  0.00000000E+00
  0.00000000E+00  0.00000000E+00  0.00000000E+00
  0.00000000E+00  0.00000000E+00  0.00000000E+00
  0.00000000E+00  0.00000000E+00  0.00000000E+00
  0.00000000E+00  0.00000000E+00  0.00000000E+00
  0.00000000E+00  0.00000000E+00  0.00000000E+00
  0.00000000E+00  0.00000000E+00  0.00000000E+00
  0.00000000E+00  0.00000000E+00  0.00000000E+00
  0.00000000E+00  0.00000000E+00  0.00000000E+00
  0.00000000E+00  0.00000000E+00  0.00000000E+00
  0.00000000E+00  0.00000000E+00  0.00000000E+00
  0.00000000E+00  0.00000000E+00  0.00000000E+00
  0.00000000E+00  0.00000000E+00  0.00000000E+00
  0.00000000E+00  0.00000000E+00  0.00000000E+00
  0.00000000E+00  0.00000000E+00  0.00000000E+00
  0.00000000E+00  0.00000000E+00  0.00000000E+00
  0.00000000E+00  0.00000000E+00  0.00000000E+00
  0.00000000E+00  0.00000000E+00  0.00000000E+00
  0.00000000E+00  0.00000000E+00  0.00000000E+00
  0.00000000E+00  0.00000000E+00  0.00000000E+00
  0.00000000E+00  0.00000000E+00  0.00000000E+00
  0.00000000E+00  0.00000000E+00  0.00000000E+00
  0.00000000E+00  0.00000000E+00  0.00000000E+00
  0.00000000E+00  0.00000000E+00  0.00000000E+00
  0.00000000E+00  0.00000000E+00  0.00000000E+00
  0.00000000E+00  0.00000000E+00  0.00000000E+00
  0.00000000E+00  0.00000000E+00  0.00000000E+00
  0.00000000E+00  0.00000000E+00  0.00000000E+00
  0.00000000E+00  0.00000000E+00  0.00000000E+00
  0.00000000E+00  0.00000000E+00  0.00000000E+00
  0.00000000E+00  0.00000000E+00  0.00000000E+00
  0.00000000E+00  0.00000000E+00  0.00000000E+00
  0.00000000E+00  0.00000000E+00  0.00000000E+00
  0.00000000E+00  0.00000000E+00  0.00000000E+00
  0.00000000E+00  0.00000000E+00  0.00000000E+00
  0.00000000E+00  0.00000000E+00  0.00000000E+00
  0.00000000E+00  0.00000000E+00  0.00000000E+00
  0.00000000E+00  0.00000000E+00  0.00000000E+00
  0.00000000E+00  0.00000000E+00  0.00000000E+00
  0.00000000E+00  0.00000000E+00  0.00000000E+00
  0.00000000E+00  0.00000000E+00  0.00000000E+00
  0.00000000E+00  0.00000000E+00  0.00000000E+00
  0.00000000E+00  0.00000000E+00  0.00000000E+00
  0.00000000E+00  0.00000000E+00  0.00000000E+00
  0.00000000E+00  0.00000000E+00  0.00000000E+00
  0.00000000E+00  0.00000000E+00  0.00000000E+00
  0.00000000E+00  0.00000000E+00  0.00000000E+00
  0.00000000E+00  0.00000000E+00  0.00000000E+00
  0.00000000E+00  0.00000000E+00  0.00000000E+00
  0.00000000E+00  0.00000000E+00  0.00000000E+00
  0.00000000E+00  0.00000000E+00  0.00000000E+00
  0.00000000E+00  0.00000000E+00  0.00000000E+00
  0.00000000E+00  0.00000000E+00  0.00000000E+00
  0.00000000E+00  0.00000000E+00  0.00000000E+00
  0.00000000E+00  0.00000000E+00  0.00000000E+00
  0.00000000E+00  0.00000000E+00  0.00000000E+00
  0.00000000E+00  0.00000000E+00  0.00000000E+00
  0.00000000E+00  0.00000000E+00  0.00000000E+00
  0.00000000E+00  0.00000000E+00  0.00000000E+00
  0.00000000E+00  0.00000000E+00  0.00000000E+00
  0.00000000E+00  0.00000000E+00  0.00000000E+00
  0.00000000E+00  0.00000000E+00  0.00000000E+00
  0.00000000E+00  0.00000000E+00  0.00000000E+00
  0.00000000E+00  0.00000000E+00  0.00000000E+00
  0.00000000E+00  0.00000000E+00  0.00000000E+00
  0.00000000E+00  0.00000000E+00  0.00000000E+00
  0.00000000E+00  0.00000000E+00  0.00000000E+00
  0.00000000E+00  0.00000000E+00  0.00000000E+00
  0.00000000E+00  0.00000000E+00  0.00000000E+00
  0.00000000E+00  0.00000000E+00  0.00000000E+00
  0.00000000E+00  0.00000000E+00  0.00000000E+00
  0.00000000E+00  0.00000000E+00  0.00000000E+00
  0.00000000E+00  0.00000000E+00  0.00000000E+00
  0.00000000E+00  0.00000000E+00  0.00000000E+00
  0.00000000E+00  0.00000000E+00  0.00000000E+00
  0.00000000E+00  0.00000000E+00  0.00000000E+00
  0.00000000E+00  0.00000000E+00  0.00000000E+00
  0.00000000E+00  0.00000000E+00  0.00000000E+00
  0.00000000E+00  0.00000000E+00  0.00000000E+00
  0.00000000E+00  0.00000000E+00  0.00000000E+00
  0.00000000E+00  0.00000000E+00  0.00000000E+00
  0.00000000E+00  0.00000000E+00  0.00000000E+00
