In24 Ga30 Cu6 Ag48 Se108                
   1.0000000000000000     
    16.5192095799975718   -0.0018709577779680   -7.6303926076204727
    -3.5196256742012983   16.1329289451810673   -7.6395056100230514
     0.0054252486390540    0.0062646556693479   21.6859803351345661
   In   Ga   Cu   Ag   Se
    24    30     6    48   108
Direct
  0.5049353123770501  0.4986947492949483  0.0000111883266598
  0.4972742228685192  0.8351300227408203  0.9977964613415935
  0.8384396363193716  0.8345525104946816  0.0001249908649825
  0.5002389690533988  0.8330892687663720  0.3335464422624810
  0.1623112583537250  0.5041198172883199  0.6682760871433544
  0.1664237557147956  0.8287912601467724  0.6665744119808679
  0.4963999470624501  0.8266368152253634  0.6643977894724671
  0.1651522770400433  0.1690782679580281  0.6660453270048379
  0.8358906227622995  0.1677572395737457  0.6693173730549375
  0.9168233725049149  0.4166245830299715  0.1655060586860841
  0.2446741885797579  0.7542739114646082  0.1659490694207832
  0.5869221067838666  0.7507335876052394  0.1683768339049010
  0.2453835368739519  0.0818970088666688  0.1690478924995489
  0.2473133445301059  0.4108387526375736  0.4965784157370408
  0.9133872028386492  0.4169818088443051  0.4971568082624245
  0.5841164527024816  0.7442198159204594  0.4989128359304260
  0.9148851791119839  0.7455570752510283  0.4965575801561428
  0.2482166407880513  0.0847147927978043  0.4981227118567517
  0.5848314726904889  0.0887506853295790  0.4990366156557826
  0.9136216419019334  0.0858964362982775  0.4939892606794203
  0.2489439720973294  0.4203624139274211  0.8378038728884505
  0.9197700828653552  0.4231332670678469  0.8365944128599025
  0.2513494239972545  0.0859258327980186  0.8384260908251164
  0.5870502703919485  0.0839407492294768  0.8353149926582830
  0.1696982369105555  0.5011530617700188  0.0058923571053171
  0.8312769471311867  0.5010433673610919  0.9992394019534885
  0.1587052221707737  0.8373255192189433  0.9994309025980712
  0.1587209886423864  0.1633307860264921  0.0010178176179494
  0.5034482350059477  0.1690520331626075  0.0048995537791612
  0.8415899416080848  0.1631185711728662  0.0022575057139207
  0.1637984784006292  0.5040428820000855  0.3333144748943226
  0.5006913378532616  0.4939706060200564  0.3302410745003215
  0.8321290107359971  0.4970559156164782  0.3273898841283014
  0.1620601177672469  0.8286002411022224  0.3302242906789203
  0.8379349412806789  0.8321163833612673  0.3319250165906880
  0.1606206129251220  0.1645700542439101  0.3321209321767640
  0.5009316070357173  0.1707179180220919  0.3327991691616674
  0.8340591994988387  0.1690018742379564  0.3311015865458984
  0.5024380501423522  0.5017255866617418  0.6671305104801846
  0.8316022643563130  0.5010736525663546  0.6638343796758406
  0.8374662045933690  0.8316610998002290  0.6702118405771742
  0.5019598187444316  0.1692554389667364  0.6674110561346609
  0.2472469489027134  0.4155679630925206  0.1683127009777152
  0.5855874770790521  0.4138533227275971  0.1674398915953077
  0.9199675006157619  0.7500344960379479  0.1684556882817958
  0.5872098019251908  0.0882540114650823  0.1698614110463694
  0.9226980482921903  0.0850794393150736  0.1683134465153913
  0.5860042581095257  0.4156753745834720  0.4993556730079902
  0.2445415831202880  0.7448268017051092  0.4937950955090571
  0.5859275825751240  0.4138928732750173  0.8294296352782951
  0.2430484248400404  0.7512292959994014  0.8354696864013249
  0.5831948879629323  0.7484245346526066  0.8327434915329590
  0.9178268301952315  0.7493406553904336  0.8308998813708115
  0.9168911003310214  0.0792228128429500  0.8367518451700064
  0.9975870841410313  0.9975976535821403  0.0010191272670070
  0.0010371145926200  0.6664544075675849  0.3318999759254027
  0.9970436211175482  0.6683907455404210  0.6700307923663615
  0.0779371822042521  0.9196116210105956  0.1667701297710167
  0.0798744473493969  0.2500855960733404  0.4949999255663542
  0.7482177365048699  0.2541078013064535  0.4970566918194379
  0.0036439655358222  0.3346541235772094  0.0005409892777664
  0.3367372912133035  0.3321272417940904  0.0130995804262639
  0.6670389983656477  0.3321087081554310  0.0001383837823568
  0.0013346700691272  0.6725395979833166  0.0052718666142653
  0.3251948336799870  0.6691270817727286  0.9991318099159585
  0.6747448482734981  0.6661153751079567  0.9968546688108262
  0.3360485104618718  0.0055775525047750  0.0065173552705602
  0.6702715513996367  0.0016535325490779  0.0044924426529462
  0.9985158316400486  0.3325067369735777  0.3327372570481657
  0.3307229194875276  0.3374060090715219  0.3320653949483940
  0.6646609926308713  0.3316186489733894  0.3341889740456025
  0.3335631154430914  0.6621377541169551  0.3331189360168665
  0.6696203791647690  0.6587604883653384  0.3264944049441283
  0.0027606143577543  0.9964688101275030  0.3253858975347441
  0.3279436591551317  0.0011228201513234  0.3316775175798270
  0.6691615566379525  0.0061878384867811  0.3332459431651174
  0.9922670813206125  0.3310940760162353  0.6589951449208868
  0.3326807465422092  0.3369635385071277  0.6651058019008715
  0.6650108231723024  0.3350160508965416  0.6636075131592278
  0.3308020833895640  0.6668667028793109  0.6687521053962726
  0.6739612076352088  0.6639811161423523  0.6683897624825548
  0.0006189169280404  0.9982696375959321  0.6718222520771278
  0.3343917570222317  0.9977181290337498  0.6644759570049317
  0.6714502968548075  0.9992225331424152  0.6657232672664932
  0.0789810295855133  0.5832966934810955  0.1655918218676149
  0.4114718003115385  0.5759619771016986  0.1666732945786222
  0.7609024960140118  0.5910558710337170  0.1730055217025281
  0.4201788405475568  0.9242769174036667  0.1664665397372289
  0.7550200901083528  0.9206253335299550  0.1701550952002009
  0.0876602431349838  0.2485358493864851  0.1680612652049973
  0.4147118624443351  0.2491147264135591  0.1640358526489649
  0.7490645226684904  0.2421429147605849  0.1605981463900079
  0.0746755725767585  0.5807620880466970  0.4941394968043298
  0.4113752409753602  0.5719052118238110  0.4953424834125855
  0.7519024471380860  0.5866972499073952  0.5004398932713841
  0.0798706227947150  0.9094327431291447  0.4915914181059122
  0.4156264431678593  0.9240558570837081  0.5035192394132437
  0.7537601504044957  0.9131772945093886  0.5006685777954445
  0.4197037430751465  0.2526136111831789  0.4995772024006584
  0.0765800031019097  0.5894272374183345  0.8355026853298284
  0.4214336358892936  0.5813387087220150  0.8308008965854086
  0.7462217280485888  0.5845219479265893  0.8302974251701585
  0.0830107288765802  0.9146234897823575  0.8370446730893519
  0.4205925708774387  0.9194903948317759  0.8395674279694703
  0.7538837076422595  0.9169849923343492  0.8358286188797166
  0.0875341477685083  0.2561134406259598  0.8448698498061091
  0.4184889955268005  0.2459267552943061  0.8349630127907588
  0.7504891487933989  0.2534920252168504  0.8377732627169863
  0.1342137876070240  0.4604714819736984  0.0873673990764985
  0.4691499695479564  0.4553366581011531  0.0886095105532334
  0.7936664964037163  0.4614257428422803  0.0788293411365899
  0.1218001181064565  0.8064096826142091  0.0853765196316303
  0.4588383021898750  0.7919314345401745  0.0836732672748113
  0.8035393417243739  0.7926804010259545  0.0900372341058358
  0.1166760988458435  0.1159018112266139  0.0750377924060572
  0.4697624762249788  0.1265310082802173  0.0860874664730602
  0.8060218622205824  0.1218164219787852  0.0830655018930742
  0.1263476995234214  0.4592349058951370  0.4108531921181680
  0.4698607562628325  0.4543201118232716  0.4146006084223970
  0.7923181163510620  0.4612009356180593  0.4082573763328554
  0.1241952035092666  0.7811047570555445  0.4085137612208953
  0.4587041307429658  0.7930790533353971  0.4197172245861438
  0.7935933095022989  0.7900633968846762  0.4076473561925198
  0.1225437379031362  0.1345153330778857  0.4169789715543857
  0.4587015743506342  0.1264691257457145  0.4081713661304249
  0.7913258108850485  0.1399575965739999  0.4150627617977918
  0.1200985021813850  0.4601309262346902  0.7520787656594266
  0.4701045037772431  0.4566289320488934  0.7478120236116013
  0.7957174346665141  0.4630512710421826  0.7454074119299037
  0.1208729957287957  0.7823914382007189  0.7496929324669779
  0.4639103970849945  0.7900692476845919  0.7571671727452340
  0.8013521488400457  0.7913179142596931  0.7512089236268906
  0.1252302022830065  0.1288290888173051  0.7533027509484000
  0.4629435018030463  0.1251652892058459  0.7447144663366387
  0.8014218443283170  0.1250330613028936  0.7591813908890259
  0.2851238843050155  0.6217695000060530  0.0830857037507968
  0.6307243739228099  0.6263721358411374  0.0833726368114114
  0.9473394699736701  0.6248194231173727  0.0820325824118058
  0.2804962316645359  0.9525291376907177  0.0795462000225058
  0.6230678198177770  0.9656938100295278  0.0907751787328621
  0.9655105685616903  0.9655921398154774  0.0885489320007764
  0.2753557420459032  0.2870820477094540  0.0865828801831796
  0.6189862706304154  0.2911545776947762  0.0841112561510258
  0.9556564593465566  0.2856650129977822  0.0805328977095030
  0.2832583008696474  0.6220284582602531  0.4164636952667777
  0.6173769009074661  0.6146071338493400  0.4069477007198969
  0.9495699191307168  0.6189136098617993  0.4010668766667251
  0.2794298203992938  0.9496673646607263  0.4098128234079752
  0.6277905969312556  0.9594788365881257  0.4173511024667960
  0.9521136529607119  0.9539980534507251  0.4080685406318523
  0.2822593168532421  0.2803658137084355  0.4075295528753387
  0.6227886038169146  0.2900213158878984  0.4211172142709572
  0.9574181978250209  0.2853534168653766  0.4163124256942510
  0.2878773507736057  0.6334949747704215  0.7591651194192792
  0.6159052508954375  0.6263664373323294  0.7487001464371872
  0.9495040059016375  0.6265369994752348  0.7434521177562132
  0.2914687534393607  0.9581909002974456  0.7517225902608615
  0.6233898378183085  0.9541377563312352  0.7474067617321438
  0.9507269225740345  0.9570115656753515  0.7533278709765980
  0.2933475864369797  0.2947388398454578  0.7532086903753381
  0.6203042050980159  0.2905089991690559  0.7479425665017914
  0.9623307809291148  0.2947625510945855  0.7537178909712807
  0.2041176365291903  0.3862536741893052  0.2510713781380716
  0.5413829104437511  0.3791383717200247  0.2475013309337442
  0.8709070316439806  0.3771849966082783  0.2500194032342122
  0.2060025041218481  0.7130196036506575  0.2534140569921206
  0.5392651484926958  0.7042814203991625  0.2477885406418423
  0.8888161567827808  0.7175113052164690  0.2570837105676844
  0.1937510668329310  0.0407553592102730  0.2509319375875165
  0.5428622366843854  0.0553095686375045  0.2504605862978266
  0.8773638454259824  0.0530849119728956  0.2494627052540395
  0.1960071300323705  0.3701654460479915  0.5781479104918716
  0.5415063877831443  0.3864066690339953  0.5819327784604909
  0.8626428888206448  0.3767377103878999  0.5797470910123721
  0.2071003826382807  0.7057784546699750  0.5748709455708223
  0.5407377320837981  0.7002465680791019  0.5817142739871670
  0.8817247528279779  0.7131926770276564  0.5929293533320887
  0.2052072831532996  0.0402788040280342  0.5809839754774302
  0.5435806595278692  0.0515929329443665  0.5883072312273399
  0.8785458039187688  0.0434231413393178  0.5824624929612270
  0.2132018572641670  0.3842362577059788  0.9299357497648231
  0.5449946877492309  0.3749804402498427  0.9082946413655222
  0.8754332410592198  0.3847348693781925  0.9228363940248840
  0.2013434804345025  0.7205911175369408  0.9189511143538027
  0.5471315233059144  0.7123043389518813  0.9148213805860621
  0.8768394487392968  0.7086941190585421  0.9089067472438757
  0.2053245592967343  0.0491444903112779  0.9245951014779621
  0.5430318064868516  0.0512858214222689  0.9248467879479421
  0.8834907187867955  0.0439893960048963  0.9229177665403654
  0.0434773200737979  0.5462960057652779  0.2576404214312191
  0.3739350354846138  0.5277207494537350  0.2511779186108143
  0.7095386017836418  0.5279091673668077  0.2432965686609592
  0.0446627599707980  0.8650670838703505  0.2422073969324572
  0.3753590774357036  0.8769257669999604  0.2486163031715378
  0.7182903977105610  0.8742886060806114  0.2564351027907819
  0.0426428660951288  0.2024438036798131  0.2504710790257789
  0.3781058135326560  0.2056293928976700  0.2528228549045650
  0.7104485470361013  0.2035113079910715  0.2501472073572870
  0.0346942217605317  0.5512689385123792  0.5873007829129477
  0.3779103931177872  0.5361260814053637  0.5889604599011378
  0.7084997423282644  0.5319418668016453  0.5796655093136707
  0.0412502245130213  0.8730939526591399  0.5823106059614105
  0.3651928175530585  0.8622273932524678  0.5751617228901509
  0.7175764855075215  0.8669535262406214  0.5870877514233754
  0.0431162750521281  0.2114012250251278  0.5749700924796954
  0.3823513840097590  0.2065962897295606  0.5862548221508490
  0.7148895034004283  0.2131758097572742  0.5788789556817235
  0.0524669823295767  0.5444022485383684  0.9287997979383675
  0.3776570957590977  0.5451838736668222  0.9191468128996618
  0.7089787565808123  0.5301981847063644  0.9119049715173801
  0.0342752686706476  0.8739700535314086  0.9210983807676953
  0.3625307119334238  0.8696290173376937  0.9125728008664140
  0.7027169396665940  0.8675877483410090  0.9132884633846388
  0.0385417178706575  0.1964733445442874  0.9169823094114520
  0.3839014152894720  0.2086660094565858  0.9266016413142069
  0.7210304615193763  0.2040827422826723  0.9260471431989572

  0.00000000E+00  0.00000000E+00  0.00000000E+00
  0.00000000E+00  0.00000000E+00  0.00000000E+00
  0.00000000E+00  0.00000000E+00  0.00000000E+00
  0.00000000E+00  0.00000000E+00  0.00000000E+00
  0.00000000E+00  0.00000000E+00  0.00000000E+00
  0.00000000E+00  0.00000000E+00  0.00000000E+00
  0.00000000E+00  0.00000000E+00  0.00000000E+00
  0.00000000E+00  0.00000000E+00  0.00000000E+00
  0.00000000E+00  0.00000000E+00  0.00000000E+00
  0.00000000E+00  0.00000000E+00  0.00000000E+00
  0.00000000E+00  0.00000000E+00  0.00000000E+00
  0.00000000E+00  0.00000000E+00  0.00000000E+00
  0.00000000E+00  0.00000000E+00  0.00000000E+00
  0.00000000E+00  0.00000000E+00  0.00000000E+00
  0.00000000E+00  0.00000000E+00  0.00000000E+00
  0.00000000E+00  0.00000000E+00  0.00000000E+00
  0.00000000E+00  0.00000000E+00  0.00000000E+00
  0.00000000E+00  0.00000000E+00  0.00000000E+00
  0.00000000E+00  0.00000000E+00  0.00000000E+00
  0.00000000E+00  0.00000000E+00  0.00000000E+00
  0.00000000E+00  0.00000000E+00  0.00000000E+00
  0.00000000E+00  0.00000000E+00  0.00000000E+00
  0.00000000E+00  0.00000000E+00  0.00000000E+00
  0.00000000E+00  0.00000000E+00  0.00000000E+00
  0.00000000E+00  0.00000000E+00  0.00000000E+00
  0.00000000E+00  0.00000000E+00  0.00000000E+00
  0.00000000E+00  0.00000000E+00  0.00000000E+00
  0.00000000E+00  0.00000000E+00  0.00000000E+00
  0.00000000E+00  0.00000000E+00  0.00000000E+00
  0.00000000E+00  0.00000000E+00  0.00000000E+00
  0.00000000E+00  0.00000000E+00  0.00000000E+00
  0.00000000E+00  0.00000000E+00  0.00000000E+00
  0.00000000E+00  0.00000000E+00  0.00000000E+00
  0.00000000E+00  0.00000000E+00  0.00000000E+00
  0.00000000E+00  0.00000000E+00  0.00000000E+00
  0.00000000E+00  0.00000000E+00  0.00000000E+00
  0.00000000E+00  0.00000000E+00  0.00000000E+00
  0.00000000E+00  0.00000000E+00  0.00000000E+00
  0.00000000E+00  0.00000000E+00  0.00000000E+00
  0.00000000E+00  0.00000000E+00  0.00000000E+00
  0.00000000E+00  0.00000000E+00  0.00000000E+00
  0.00000000E+00  0.00000000E+00  0.00000000E+00
  0.00000000E+00  0.00000000E+00  0.00000000E+00
  0.00000000E+00  0.00000000E+00  0.00000000E+00
  0.00000000E+00  0.00000000E+00  0.00000000E+00
  0.00000000E+00  0.00000000E+00  0.00000000E+00
  0.00000000E+00  0.00000000E+00  0.00000000E+00
  0.00000000E+00  0.00000000E+00  0.00000000E+00
  0.00000000E+00  0.00000000E+00  0.00000000E+00
  0.00000000E+00  0.00000000E+00  0.00000000E+00
  0.00000000E+00  0.00000000E+00  0.00000000E+00
  0.00000000E+00  0.00000000E+00  0.00000000E+00
  0.00000000E+00  0.00000000E+00  0.00000000E+00
  0.00000000E+00  0.00000000E+00  0.00000000E+00
  0.00000000E+00  0.00000000E+00  0.00000000E+00
  0.00000000E+00  0.00000000E+00  0.00000000E+00
  0.00000000E+00  0.00000000E+00  0.00000000E+00
  0.00000000E+00  0.00000000E+00  0.00000000E+00
  0.00000000E+00  0.00000000E+00  0.00000000E+00
  0.00000000E+00  0.00000000E+00  0.00000000E+00
  0.00000000E+00  0.00000000E+00  0.00000000E+00
  0.00000000E+00  0.00000000E+00  0.00000000E+00
  0.00000000E+00  0.00000000E+00  0.00000000E+00
  0.00000000E+00  0.00000000E+00  0.00000000E+00
  0.00000000E+00  0.00000000E+00  0.00000000E+00
  0.00000000E+00  0.00000000E+00  0.00000000E+00
  0.00000000E+00  0.00000000E+00  0.00000000E+00
  0.00000000E+00  0.00000000E+00  0.00000000E+00
  0.00000000E+00  0.00000000E+00  0.00000000E+00
  0.00000000E+00  0.00000000E+00  0.00000000E+00
  0.00000000E+00  0.00000000E+00  0.00000000E+00
  0.00000000E+00  0.00000000E+00  0.00000000E+00
  0.00000000E+00  0.00000000E+00  0.00000000E+00
  0.00000000E+00  0.00000000E+00  0.00000000E+00
  0.00000000E+00  0.00000000E+00  0.00000000E+00
  0.00000000E+00  0.00000000E+00  0.00000000E+00
  0.00000000E+00  0.00000000E+00  0.00000000E+00
  0.00000000E+00  0.00000000E+00  0.00000000E+00
  0.00000000E+00  0.00000000E+00  0.00000000E+00
  0.00000000E+00  0.00000000E+00  0.00000000E+00
  0.00000000E+00  0.00000000E+00  0.00000000E+00
  0.00000000E+00  0.00000000E+00  0.00000000E+00
  0.00000000E+00  0.00000000E+00  0.00000000E+00
  0.00000000E+00  0.00000000E+00  0.00000000E+00
  0.00000000E+00  0.00000000E+00  0.00000000E+00
  0.00000000E+00  0.00000000E+00  0.00000000E+00
  0.00000000E+00  0.00000000E+00  0.00000000E+00
  0.00000000E+00  0.00000000E+00  0.00000000E+00
  0.00000000E+00  0.00000000E+00  0.00000000E+00
  0.00000000E+00  0.00000000E+00  0.00000000E+00
  0.00000000E+00  0.00000000E+00  0.00000000E+00
  0.00000000E+00  0.00000000E+00  0.00000000E+00
  0.00000000E+00  0.00000000E+00  0.00000000E+00
  0.00000000E+00  0.00000000E+00  0.00000000E+00
  0.00000000E+00  0.00000000E+00  0.00000000E+00
  0.00000000E+00  0.00000000E+00  0.00000000E+00
  0.00000000E+00  0.00000000E+00  0.00000000E+00
  0.00000000E+00  0.00000000E+00  0.00000000E+00
  0.00000000E+00  0.00000000E+00  0.00000000E+00
  0.00000000E+00  0.00000000E+00  0.00000000E+00
  0.00000000E+00  0.00000000E+00  0.00000000E+00
  0.00000000E+00  0.00000000E+00  0.00000000E+00
  0.00000000E+00  0.00000000E+00  0.00000000E+00
  0.00000000E+00  0.00000000E+00  0.00000000E+00
  0.00000000E+00  0.00000000E+00  0.00000000E+00
  0.00000000E+00  0.00000000E+00  0.00000000E+00
  0.00000000E+00  0.00000000E+00  0.00000000E+00
  0.00000000E+00  0.00000000E+00  0.00000000E+00
  0.00000000E+00  0.00000000E+00  0.00000000E+00
  0.00000000E+00  0.00000000E+00  0.00000000E+00
  0.00000000E+00  0.00000000E+00  0.00000000E+00
  0.00000000E+00  0.00000000E+00  0.00000000E+00
  0.00000000E+00  0.00000000E+00  0.00000000E+00
  0.00000000E+00  0.00000000E+00  0.00000000E+00
  0.00000000E+00  0.00000000E+00  0.00000000E+00
  0.00000000E+00  0.00000000E+00  0.00000000E+00
  0.00000000E+00  0.00000000E+00  0.00000000E+00
  0.00000000E+00  0.00000000E+00  0.00000000E+00
  0.00000000E+00  0.00000000E+00  0.00000000E+00
  0.00000000E+00  0.00000000E+00  0.00000000E+00
  0.00000000E+00  0.00000000E+00  0.00000000E+00
  0.00000000E+00  0.00000000E+00  0.00000000E+00
  0.00000000E+00  0.00000000E+00  0.00000000E+00
  0.00000000E+00  0.00000000E+00  0.00000000E+00
  0.00000000E+00  0.00000000E+00  0.00000000E+00
  0.00000000E+00  0.00000000E+00  0.00000000E+00
  0.00000000E+00  0.00000000E+00  0.00000000E+00
  0.00000000E+00  0.00000000E+00  0.00000000E+00
  0.00000000E+00  0.00000000E+00  0.00000000E+00
  0.00000000E+00  0.00000000E+00  0.00000000E+00
  0.00000000E+00  0.00000000E+00  0.00000000E+00
  0.00000000E+00  0.00000000E+00  0.00000000E+00
  0.00000000E+00  0.00000000E+00  0.00000000E+00
  0.00000000E+00  0.00000000E+00  0.00000000E+00
  0.00000000E+00  0.00000000E+00  0.00000000E+00
  0.00000000E+00  0.00000000E+00  0.00000000E+00
  0.00000000E+00  0.00000000E+00  0.00000000E+00
  0.00000000E+00  0.00000000E+00  0.00000000E+00
  0.00000000E+00  0.00000000E+00  0.00000000E+00
  0.00000000E+00  0.00000000E+00  0.00000000E+00
  0.00000000E+00  0.00000000E+00  0.00000000E+00
  0.00000000E+00  0.00000000E+00  0.00000000E+00
  0.00000000E+00  0.00000000E+00  0.00000000E+00
  0.00000000E+00  0.00000000E+00  0.00000000E+00
  0.00000000E+00  0.00000000E+00  0.00000000E+00
  0.00000000E+00  0.00000000E+00  0.00000000E+00
  0.00000000E+00  0.00000000E+00  0.00000000E+00
  0.00000000E+00  0.00000000E+00  0.00000000E+00
  0.00000000E+00  0.00000000E+00  0.00000000E+00
  0.00000000E+00  0.00000000E+00  0.00000000E+00
  0.00000000E+00  0.00000000E+00  0.00000000E+00
  0.00000000E+00  0.00000000E+00  0.00000000E+00
  0.00000000E+00  0.00000000E+00  0.00000000E+00
  0.00000000E+00  0.00000000E+00  0.00000000E+00
  0.00000000E+00  0.00000000E+00  0.00000000E+00
  0.00000000E+00  0.00000000E+00  0.00000000E+00
  0.00000000E+00  0.00000000E+00  0.00000000E+00
  0.00000000E+00  0.00000000E+00  0.00000000E+00
  0.00000000E+00  0.00000000E+00  0.00000000E+00
  0.00000000E+00  0.00000000E+00  0.00000000E+00
  0.00000000E+00  0.00000000E+00  0.00000000E+00
  0.00000000E+00  0.00000000E+00  0.00000000E+00
  0.00000000E+00  0.00000000E+00  0.00000000E+00
  0.00000000E+00  0.00000000E+00  0.00000000E+00
  0.00000000E+00  0.00000000E+00  0.00000000E+00
  0.00000000E+00  0.00000000E+00  0.00000000E+00
  0.00000000E+00  0.00000000E+00  0.00000000E+00
  0.00000000E+00  0.00000000E+00  0.00000000E+00
  0.00000000E+00  0.00000000E+00  0.00000000E+00
  0.00000000E+00  0.00000000E+00  0.00000000E+00
  0.00000000E+00  0.00000000E+00  0.00000000E+00
  0.00000000E+00  0.00000000E+00  0.00000000E+00
  0.00000000E+00  0.00000000E+00  0.00000000E+00
  0.00000000E+00  0.00000000E+00  0.00000000E+00
  0.00000000E+00  0.00000000E+00  0.00000000E+00
  0.00000000E+00  0.00000000E+00  0.00000000E+00
  0.00000000E+00  0.00000000E+00  0.00000000E+00
  0.00000000E+00  0.00000000E+00  0.00000000E+00
  0.00000000E+00  0.00000000E+00  0.00000000E+00
  0.00000000E+00  0.00000000E+00  0.00000000E+00
  0.00000000E+00  0.00000000E+00  0.00000000E+00
  0.00000000E+00  0.00000000E+00  0.00000000E+00
  0.00000000E+00  0.00000000E+00  0.00000000E+00
  0.00000000E+00  0.00000000E+00  0.00000000E+00
  0.00000000E+00  0.00000000E+00  0.00000000E+00
  0.00000000E+00  0.00000000E+00  0.00000000E+00
  0.00000000E+00  0.00000000E+00  0.00000000E+00
  0.00000000E+00  0.00000000E+00  0.00000000E+00
  0.00000000E+00  0.00000000E+00  0.00000000E+00
  0.00000000E+00  0.00000000E+00  0.00000000E+00
  0.00000000E+00  0.00000000E+00  0.00000000E+00
  0.00000000E+00  0.00000000E+00  0.00000000E+00
  0.00000000E+00  0.00000000E+00  0.00000000E+00
  0.00000000E+00  0.00000000E+00  0.00000000E+00
  0.00000000E+00  0.00000000E+00  0.00000000E+00
  0.00000000E+00  0.00000000E+00  0.00000000E+00
  0.00000000E+00  0.00000000E+00  0.00000000E+00
  0.00000000E+00  0.00000000E+00  0.00000000E+00
  0.00000000E+00  0.00000000E+00  0.00000000E+00
  0.00000000E+00  0.00000000E+00  0.00000000E+00
  0.00000000E+00  0.00000000E+00  0.00000000E+00
  0.00000000E+00  0.00000000E+00  0.00000000E+00
  0.00000000E+00  0.00000000E+00  0.00000000E+00
  0.00000000E+00  0.00000000E+00  0.00000000E+00
  0.00000000E+00  0.00000000E+00  0.00000000E+00
  0.00000000E+00  0.00000000E+00  0.00000000E+00
  0.00000000E+00  0.00000000E+00  0.00000000E+00
  0.00000000E+00  0.00000000E+00  0.00000000E+00
  0.00000000E+00  0.00000000E+00  0.00000000E+00
  0.00000000E+00  0.00000000E+00  0.00000000E+00
  0.00000000E+00  0.00000000E+00  0.00000000E+00
  0.00000000E+00  0.00000000E+00  0.00000000E+00
  0.00000000E+00  0.00000000E+00  0.00000000E+00
  0.00000000E+00  0.00000000E+00  0.00000000E+00
  0.00000000E+00  0.00000000E+00  0.00000000E+00
  0.00000000E+00  0.00000000E+00  0.00000000E+00
