In6 Ga48 Ag54 Se108                     
   1.0000000000000000     
    16.4377440530989425    0.0546022556871398   -7.7512036133897686
    -3.7201352256493005   16.0038518489898571   -7.7702050953149060
     0.0194976536080348    0.0521697751374742   21.3491504539985542
   In   Ga   Ag   Se
     6    48    54   108
Direct
  0.4996348991513813  0.1667375401175093  0.9991289491326327
  0.8309380046618529  0.1685194954044746  0.6644213144265620
  0.2511400454285493  0.4181598733456298  0.1672156011963537
  0.2497780819380750  0.0831295619858992  0.1670890594402152
  0.9161333716781783  0.0825072676801071  0.1673472544905010
  0.9159456805070576  0.0821341983493156  0.8347517005004264
  0.1646531779475495  0.5035104305184248  0.9986056795472749
  0.5002048845335523  0.5006138964320144  0.9998623673035922
  0.8328913129073072  0.5014063702814511  0.0000230233735579
  0.1675101344903638  0.8286272652420408  0.9978614272356836
  0.5004017245838313  0.8325211212391324  0.9999193622083453
  0.8330914561300133  0.8287257413831668  0.9975461494814581
  0.1680399344871901  0.1670239935405391  0.9974734584254534
  0.8285131679292164  0.1671891929238356  0.0002911973826301
  0.1657602014360720  0.5003935872482685  0.3359480992610600
  0.5042337441717919  0.5036380173049082  0.3360637767026944
  0.8339518059793960  0.5011282546705544  0.3338109796257456
  0.1669142632151122  0.8329649749729597  0.3344975591441965
  0.5000281041987336  0.8337060962674130  0.3339244097355021
  0.8343845888390149  0.8325056456427120  0.3333142997608789
  0.1686802042323876  0.1693123852379657  0.3385972597833202
  0.5026269727094075  0.1688672347700617  0.3354225525506962
  0.8324245093600737  0.1659710379349946  0.3358604250477484
  0.1672409940740920  0.5003040380667017  0.6664680561657690
  0.4993847260260367  0.5003585917988218  0.6661339181775929
  0.8330286768036217  0.4998288595218554  0.6663257163309098
  0.1674233986019118  0.8320558553600890  0.6663741207539218
  0.4999327285860033  0.8317620939373711  0.6658358857840270
  0.8340287532568311  0.8295127967950862  0.6643610292011815
  0.1656738731642378  0.1671656663871772  0.6663115362947920
  0.4996012479897018  0.1670228376827652  0.6662264269443980
  0.5857089547665026  0.4216793623773114  0.1688232364729672
  0.9165437477927298  0.4173616360853458  0.1668323783302483
  0.2507221427793169  0.7498842704245945  0.1673555950095391
  0.5842473858956367  0.7497502906581488  0.1672667242050068
  0.9159112330655219  0.7501451502602308  0.1670289766093092
  0.5834643095545928  0.0809252501210764  0.1687138878424008
  0.2503171121272132  0.4174695942742872  0.5014781936103603
  0.5838595066071406  0.4179325314445066  0.5003055517389612
  0.9170728083691913  0.4167733149858677  0.4997409481260533
  0.2502671264128224  0.7498372926155312  0.5003449018413662
  0.5843363526069822  0.7500551834013294  0.5006433005894451
  0.9172732580316776  0.7487249970359500  0.4992195344250234
  0.2501122040212351  0.0837570160568077  0.5013880117387330
  0.5792747595604126  0.0835953061684478  0.4969624008005695
  0.9175669416122219  0.0805780722574880  0.4984482368167846
  0.2509799427774269  0.4184690812605467  0.8333575083529112
  0.5823853136960793  0.4176184024954850  0.8330065336891863
  0.9183467802507934  0.4208387526047801  0.8348737107834125
  0.2510457749669968  0.7480671052028072  0.8328149812523407
  0.5832438945686249  0.7484548482351912  0.8330153885846983
  0.9161351162029732  0.7483388799911808  0.8323008820965043
  0.2462336504637577  0.0823681691812581  0.8299929992016502
  0.5833861624140795  0.0806603937671326  0.8300208523512751
  0.9957522011014674  0.3331895650687429  0.9998672063705598
  0.3320707339685001  0.3353123345705242  0.9981700899242369
  0.6668824737386529  0.3353841919697089  0.9985652777375549
  0.9996976636559012  0.6700957147270117  0.0018241148969835
  0.3347143521879943  0.6671934103579744  0.0015364942246379
  0.6671108970933517  0.6677859047906338  0.0013654190010826
  0.0021046937003035  0.9963072190525537  0.9975640176425031
  0.3308286463362080  0.9977218973928217  0.9954143637218067
  0.6653860900651836  0.9962097533951848  0.9975173287334087
  0.0008458411123868  0.3365480862783627  0.3369015603697889
  0.3365553510993990  0.3383891534884569  0.3414153411394736
  0.6663810246518906  0.3328924805928821  0.3312270304400116
  0.0004907781292900  0.6657284768842970  0.3320515878993930
  0.3336519885498035  0.6707661658442916  0.3369068237437745
  0.6662331615298100  0.6695112843258357  0.3348784595707102
  0.0048844429241015  0.0005368422571266  0.3361204757848810
  0.3315481505494375  0.9972377207013423  0.3343032612699446
  0.6683054268568327  0.9992237485618105  0.3348413072237122
  0.0009423858759305  0.3351843867720987  0.6663912436156352
  0.3330961153404104  0.3331304024417392  0.6665683957519235
  0.6634317579233624  0.3348194072146811  0.6667274344349110
  0.0005776342044257  0.6665643664516523  0.6661185257609574
  0.3339946516098991  0.6664503923712104  0.6669569560759214
  0.6674359187153058  0.6682231766824245  0.6678180464097991
  0.9999234421759127  0.9953898625294642  0.6618495794118857
  0.3334403240841155  0.9992214062144171  0.6665902500459921
  0.6610983847567695  0.9945372604301710  0.6600083117127440
  0.0819884266339059  0.5862204009284611  0.1672594764602451
  0.4186689203652278  0.5837216446159772  0.1656319021950736
  0.7502042125093880  0.5830226874667730  0.1665825612385348
  0.0821093448867316  0.9123747221274172  0.1669287327129112
  0.4185831582119945  0.9152578706685333  0.1679748111077828
  0.7472069611030321  0.9145046211771657  0.1658534079786946
  0.0811475487819422  0.2513474289821289  0.1656216648995681
  0.4227502470725071  0.2521238220505495  0.1713609316555633
  0.7507162084295516  0.2552334443083026  0.1731161593250548
  0.0830053227824763  0.5862792030673560  0.5023626964907493
  0.4157665796791576  0.5835782349808625  0.4999559212735321
  0.7509861345411011  0.5799281225019328  0.5000248064862305
  0.0852016796004449  0.9176199516156345  0.5007377344554413
  0.4175959466200183  0.9169069163386823  0.5016267231323468
  0.7466581703066097  0.9125959888222255  0.4963742931171709
  0.0820762505369004  0.2523737489454945  0.5023003587515831
  0.4196292253434635  0.2488280570096748  0.5014397620989044
  0.7512581856178429  0.2528403777821708  0.4981426807602958
  0.0813760671077404  0.5819607933547672  0.8296239058249384
  0.4175690182279652  0.5830249301764923  0.8330922956891627
  0.7475266218572898  0.5794009121037149  0.8308135589394539
  0.0838280047279909  0.9119274532898629  0.8320071710952064
  0.4126543955666691  0.9116042628696732  0.8291048744610094
  0.7464622323376062  0.9132006108568831  0.8313221554700121
  0.0892424357381287  0.2523902302251742  0.8339309674210895
  0.4167269701164429  0.2499177064782501  0.8291502555231460
  0.7489271341873405  0.2557952069317366  0.8362576441155625
  0.1268410400033986  0.4613951618628533  0.0779405659612991
  0.4679040163044021  0.4585511686112440  0.0826790966560509
  0.8015019495710121  0.4592952474277681  0.0833458451214497
  0.1358715507844721  0.7915168051840737  0.0838272730016740
  0.4689458203402097  0.7912405564079492  0.0837571189731605
  0.8010652232346871  0.7919942362040189  0.0835965708349349
  0.1275098471094296  0.1277248712263059  0.0771658148604217
  0.4658812337505722  0.1215132866685309  0.0879799432099233
  0.7913165638029298  0.1283450541779416  0.0814366071473955
  0.1347573032721954  0.4610731244098005  0.4206186198218020
  0.4701129998914126  0.4616187113724166  0.4181623115077429
  0.8013757250646449  0.4572193124751109  0.4155771915142168
  0.1343392406090302  0.7909760712905509  0.4171820745983723
  0.4694112561888630  0.7932230694908640  0.4185212215202654
  0.8023589163879379  0.7908428417862865  0.4163401203723396
  0.1348568396039411  0.1276816480219694  0.4208025179697685
  0.4638481692059244  0.1234756246435538  0.4132065804804128
  0.8010365023470740  0.1247932442944375  0.4191243215725109
  0.1351833663757489  0.4588512898316282  0.7494624779406607
  0.4668904700390470  0.4582872558216522  0.7490093205388746
  0.8003451679618436  0.4568104542924374  0.7484249849347364
  0.1358291471643014  0.7893613528317260  0.7492071309284469
  0.4683816560636700  0.7897894189208969  0.7490762884371875
  0.8018724621247557  0.7918490179937763  0.7498782987039405
  0.1304841118110218  0.1232964551653168  0.7467337917376540
  0.4676935211541817  0.1236751783129222  0.7484447158508090
  0.7891114606284120  0.1249815110725265  0.7491946656566526
  0.2832273431494343  0.6256066502986570  0.0843091070547501
  0.6163376978005601  0.6249398633335872  0.0838404662445811
  0.9482041754263548  0.6263892291548956  0.0832957946969373
  0.2845032748184266  0.9502218365961923  0.0778425078841423
  0.6153531296680370  0.9576798040841226  0.0829138778221719
  0.9506856157872789  0.9496556038527828  0.0778219664019275
  0.2883394812470854  0.2856171932389557  0.0802505680949395
  0.6226883218125536  0.3004951293861708  0.0886304103178972
  0.9460420322630867  0.2909076158432313  0.0826731157488538
  0.2817745508794545  0.6249126520416652  0.4169255738902962
  0.6201274068054943  0.6270371872917622  0.4197194549167946
  0.9499857266559815  0.6248716469136255  0.4160847501206675
  0.2821477616065735  0.9580103932516622  0.4190238846171965
  0.6147113910928539  0.9588043926949652  0.4169515140157642
  0.9504480314140764  0.9565655931908950  0.4159551045197105
  0.2850000160640747  0.2928228210852239  0.4214440101275301
  0.6167940256393223  0.2941332136136410  0.4168309683461189
  0.9479916909484132  0.2909603911077170  0.4166466521478469
  0.2834445015722338  0.6240591889107634  0.7495196081632187
  0.6155354595105393  0.6242805274747241  0.7493274998113293
  0.9480887146929291  0.6244957288413957  0.7481530309091937
  0.2811919664783815  0.9579636231912332  0.7490352656820747
  0.6154606499370487  0.9558730770424901  0.7468450040969472
  0.9513671423177641  0.9506185201962083  0.7444200440320827
  0.2808939630733391  0.2922777915644090  0.7492638237134059
  0.6142576943916751  0.2928067983919433  0.7498890648763350
  0.9565856568217015  0.2997910612898735  0.7557938826209778
  0.2076658781093030  0.3833312919797009  0.2565529608784729
  0.5436721146877588  0.3878094184038332  0.2509550383768087
  0.8767408104546774  0.3863053101530127  0.2517081489912982
  0.2086834961940198  0.7182137416321979  0.2508447418908446
  0.5419539170609511  0.7186733536575076  0.2505486608732568
  0.8751159650170237  0.7167848370792456  0.2498186660776796
  0.2045662408712232  0.0490430339116514  0.2556913532697962
  0.5424297726622100  0.0504160908908204  0.2527642714030236
  0.8732306023231260  0.0476389718855685  0.2565745372533712
  0.2084245630084993  0.3844677773423513  0.5839143732738279
  0.5406150322712193  0.3854501310021377  0.5824671495964040
  0.8759491585173365  0.3853892327114821  0.5835424368735431
  0.2098691847500049  0.7173872326397728  0.5839979430271285
  0.5418255875294804  0.7167932128037577  0.5828475548264862
  0.8749906482447614  0.7143037217814054  0.5809222715488076
  0.2090527185789668  0.0518962367157911  0.5849035482777580
  0.5400200699761157  0.0519736513074918  0.5816173453422238
  0.8748427316128371  0.0429798321844288  0.5772088186716715
  0.2094222043418483  0.3890568366250235  0.9176870466711975
  0.5407601248940921  0.3846393129753238  0.9157679758208275
  0.8746107675663879  0.3869423656552726  0.9164097799314135
  0.2086493037203780  0.7135443879272430  0.9144477151834280
  0.5418755158835751  0.7170078144587606  0.9167107186991643
  0.8728703606916355  0.7132583092194196  0.9132201215476243
  0.2059710330846798  0.0486783902242891  0.9132225045090578
  0.5410179152408290  0.0418845490281470  0.9085904526828656
  0.8709892171768132  0.0480980801758406  0.9232575475345257
  0.0423691503453369  0.5317678164780943  0.2496463759410616
  0.3836270559044479  0.5422401279658473  0.2568004766415228
  0.7102395063916731  0.5366860959412776  0.2527469038797463
  0.0416832780731795  0.8646652627841718  0.2512615405902707
  0.3750658823860320  0.8658570164834245  0.2508682844034382
  0.7089388178996145  0.8650311570118276  0.2510542907465378
  0.0488300455933768  0.2065920619138737  0.2566052301659525
  0.3817708307264596  0.2080707766940364  0.2576232006371555
  0.7078946957172292  0.1971648048475387  0.2510044228646038
  0.0419507381742861  0.5321499030640524  0.5835117756543795
  0.3748365434683905  0.5328117350210135  0.5833463925414364
  0.7086159664453788  0.5332070607686745  0.5843966992101173
  0.0430775096282687  0.8625621503136927  0.5813517141085995
  0.3751966474304496  0.8651166290085612  0.5836854276540961
  0.7096410104885607  0.8642563264651599  0.5828197138638700
  0.0402641309977128  0.1986243646449921  0.5834392897764928
  0.3748123638969574  0.1993719982810944  0.5836491514423727
  0.6983972567173069  0.2026724587937565  0.5752879757119373
  0.0411815090254706  0.5376396261620826  0.9166879045273859
  0.3760286497843026  0.5336366430102188  0.9168940850529168
  0.7073170689614514  0.5331477471186687  0.9168886663939588
  0.0426835851070635  0.8620281259433185  0.9154432739322544
  0.3753509452719754  0.8637760001456840  0.9156433726783888
  0.7084098933369205  0.8630112175616489  0.9163069188576216
  0.0477803267960937  0.2071809909920361  0.9197405996983861
  0.3668064083267453  0.2003220854045225  0.9087734735335786
  0.7056241835771857  0.1991474051360527  0.9151800502617320

  0.00000000E+00  0.00000000E+00  0.00000000E+00
  0.00000000E+00  0.00000000E+00  0.00000000E+00
  0.00000000E+00  0.00000000E+00  0.00000000E+00
  0.00000000E+00  0.00000000E+00  0.00000000E+00
  0.00000000E+00  0.00000000E+00  0.00000000E+00
  0.00000000E+00  0.00000000E+00  0.00000000E+00
  0.00000000E+00  0.00000000E+00  0.00000000E+00
  0.00000000E+00  0.00000000E+00  0.00000000E+00
  0.00000000E+00  0.00000000E+00  0.00000000E+00
  0.00000000E+00  0.00000000E+00  0.00000000E+00
  0.00000000E+00  0.00000000E+00  0.00000000E+00
  0.00000000E+00  0.00000000E+00  0.00000000E+00
  0.00000000E+00  0.00000000E+00  0.00000000E+00
  0.00000000E+00  0.00000000E+00  0.00000000E+00
  0.00000000E+00  0.00000000E+00  0.00000000E+00
  0.00000000E+00  0.00000000E+00  0.00000000E+00
  0.00000000E+00  0.00000000E+00  0.00000000E+00
  0.00000000E+00  0.00000000E+00  0.00000000E+00
  0.00000000E+00  0.00000000E+00  0.00000000E+00
  0.00000000E+00  0.00000000E+00  0.00000000E+00
  0.00000000E+00  0.00000000E+00  0.00000000E+00
  0.00000000E+00  0.00000000E+00  0.00000000E+00
  0.00000000E+00  0.00000000E+00  0.00000000E+00
  0.00000000E+00  0.00000000E+00  0.00000000E+00
  0.00000000E+00  0.00000000E+00  0.00000000E+00
  0.00000000E+00  0.00000000E+00  0.00000000E+00
  0.00000000E+00  0.00000000E+00  0.00000000E+00
  0.00000000E+00  0.00000000E+00  0.00000000E+00
  0.00000000E+00  0.00000000E+00  0.00000000E+00
  0.00000000E+00  0.00000000E+00  0.00000000E+00
  0.00000000E+00  0.00000000E+00  0.00000000E+00
  0.00000000E+00  0.00000000E+00  0.00000000E+00
  0.00000000E+00  0.00000000E+00  0.00000000E+00
  0.00000000E+00  0.00000000E+00  0.00000000E+00
  0.00000000E+00  0.00000000E+00  0.00000000E+00
  0.00000000E+00  0.00000000E+00  0.00000000E+00
  0.00000000E+00  0.00000000E+00  0.00000000E+00
  0.00000000E+00  0.00000000E+00  0.00000000E+00
  0.00000000E+00  0.00000000E+00  0.00000000E+00
  0.00000000E+00  0.00000000E+00  0.00000000E+00
  0.00000000E+00  0.00000000E+00  0.00000000E+00
  0.00000000E+00  0.00000000E+00  0.00000000E+00
  0.00000000E+00  0.00000000E+00  0.00000000E+00
  0.00000000E+00  0.00000000E+00  0.00000000E+00
  0.00000000E+00  0.00000000E+00  0.00000000E+00
  0.00000000E+00  0.00000000E+00  0.00000000E+00
  0.00000000E+00  0.00000000E+00  0.00000000E+00
  0.00000000E+00  0.00000000E+00  0.00000000E+00
  0.00000000E+00  0.00000000E+00  0.00000000E+00
  0.00000000E+00  0.00000000E+00  0.00000000E+00
  0.00000000E+00  0.00000000E+00  0.00000000E+00
  0.00000000E+00  0.00000000E+00  0.00000000E+00
  0.00000000E+00  0.00000000E+00  0.00000000E+00
  0.00000000E+00  0.00000000E+00  0.00000000E+00
  0.00000000E+00  0.00000000E+00  0.00000000E+00
  0.00000000E+00  0.00000000E+00  0.00000000E+00
  0.00000000E+00  0.00000000E+00  0.00000000E+00
  0.00000000E+00  0.00000000E+00  0.00000000E+00
  0.00000000E+00  0.00000000E+00  0.00000000E+00
  0.00000000E+00  0.00000000E+00  0.00000000E+00
  0.00000000E+00  0.00000000E+00  0.00000000E+00
  0.00000000E+00  0.00000000E+00  0.00000000E+00
  0.00000000E+00  0.00000000E+00  0.00000000E+00
  0.00000000E+00  0.00000000E+00  0.00000000E+00
  0.00000000E+00  0.00000000E+00  0.00000000E+00
  0.00000000E+00  0.00000000E+00  0.00000000E+00
  0.00000000E+00  0.00000000E+00  0.00000000E+00
  0.00000000E+00  0.00000000E+00  0.00000000E+00
  0.00000000E+00  0.00000000E+00  0.00000000E+00
  0.00000000E+00  0.00000000E+00  0.00000000E+00
  0.00000000E+00  0.00000000E+00  0.00000000E+00
  0.00000000E+00  0.00000000E+00  0.00000000E+00
  0.00000000E+00  0.00000000E+00  0.00000000E+00
  0.00000000E+00  0.00000000E+00  0.00000000E+00
  0.00000000E+00  0.00000000E+00  0.00000000E+00
  0.00000000E+00  0.00000000E+00  0.00000000E+00
  0.00000000E+00  0.00000000E+00  0.00000000E+00
  0.00000000E+00  0.00000000E+00  0.00000000E+00
  0.00000000E+00  0.00000000E+00  0.00000000E+00
  0.00000000E+00  0.00000000E+00  0.00000000E+00
  0.00000000E+00  0.00000000E+00  0.00000000E+00
  0.00000000E+00  0.00000000E+00  0.00000000E+00
  0.00000000E+00  0.00000000E+00  0.00000000E+00
  0.00000000E+00  0.00000000E+00  0.00000000E+00
  0.00000000E+00  0.00000000E+00  0.00000000E+00
  0.00000000E+00  0.00000000E+00  0.00000000E+00
  0.00000000E+00  0.00000000E+00  0.00000000E+00
  0.00000000E+00  0.00000000E+00  0.00000000E+00
  0.00000000E+00  0.00000000E+00  0.00000000E+00
  0.00000000E+00  0.00000000E+00  0.00000000E+00
  0.00000000E+00  0.00000000E+00  0.00000000E+00
  0.00000000E+00  0.00000000E+00  0.00000000E+00
  0.00000000E+00  0.00000000E+00  0.00000000E+00
  0.00000000E+00  0.00000000E+00  0.00000000E+00
  0.00000000E+00  0.00000000E+00  0.00000000E+00
  0.00000000E+00  0.00000000E+00  0.00000000E+00
  0.00000000E+00  0.00000000E+00  0.00000000E+00
  0.00000000E+00  0.00000000E+00  0.00000000E+00
  0.00000000E+00  0.00000000E+00  0.00000000E+00
  0.00000000E+00  0.00000000E+00  0.00000000E+00
  0.00000000E+00  0.00000000E+00  0.00000000E+00
  0.00000000E+00  0.00000000E+00  0.00000000E+00
  0.00000000E+00  0.00000000E+00  0.00000000E+00
  0.00000000E+00  0.00000000E+00  0.00000000E+00
  0.00000000E+00  0.00000000E+00  0.00000000E+00
  0.00000000E+00  0.00000000E+00  0.00000000E+00
  0.00000000E+00  0.00000000E+00  0.00000000E+00
  0.00000000E+00  0.00000000E+00  0.00000000E+00
  0.00000000E+00  0.00000000E+00  0.00000000E+00
  0.00000000E+00  0.00000000E+00  0.00000000E+00
  0.00000000E+00  0.00000000E+00  0.00000000E+00
  0.00000000E+00  0.00000000E+00  0.00000000E+00
  0.00000000E+00  0.00000000E+00  0.00000000E+00
  0.00000000E+00  0.00000000E+00  0.00000000E+00
  0.00000000E+00  0.00000000E+00  0.00000000E+00
  0.00000000E+00  0.00000000E+00  0.00000000E+00
  0.00000000E+00  0.00000000E+00  0.00000000E+00
  0.00000000E+00  0.00000000E+00  0.00000000E+00
  0.00000000E+00  0.00000000E+00  0.00000000E+00
  0.00000000E+00  0.00000000E+00  0.00000000E+00
  0.00000000E+00  0.00000000E+00  0.00000000E+00
  0.00000000E+00  0.00000000E+00  0.00000000E+00
  0.00000000E+00  0.00000000E+00  0.00000000E+00
  0.00000000E+00  0.00000000E+00  0.00000000E+00
  0.00000000E+00  0.00000000E+00  0.00000000E+00
  0.00000000E+00  0.00000000E+00  0.00000000E+00
  0.00000000E+00  0.00000000E+00  0.00000000E+00
  0.00000000E+00  0.00000000E+00  0.00000000E+00
  0.00000000E+00  0.00000000E+00  0.00000000E+00
  0.00000000E+00  0.00000000E+00  0.00000000E+00
  0.00000000E+00  0.00000000E+00  0.00000000E+00
  0.00000000E+00  0.00000000E+00  0.00000000E+00
  0.00000000E+00  0.00000000E+00  0.00000000E+00
  0.00000000E+00  0.00000000E+00  0.00000000E+00
  0.00000000E+00  0.00000000E+00  0.00000000E+00
  0.00000000E+00  0.00000000E+00  0.00000000E+00
  0.00000000E+00  0.00000000E+00  0.00000000E+00
  0.00000000E+00  0.00000000E+00  0.00000000E+00
  0.00000000E+00  0.00000000E+00  0.00000000E+00
  0.00000000E+00  0.00000000E+00  0.00000000E+00
  0.00000000E+00  0.00000000E+00  0.00000000E+00
  0.00000000E+00  0.00000000E+00  0.00000000E+00
  0.00000000E+00  0.00000000E+00  0.00000000E+00
  0.00000000E+00  0.00000000E+00  0.00000000E+00
  0.00000000E+00  0.00000000E+00  0.00000000E+00
  0.00000000E+00  0.00000000E+00  0.00000000E+00
  0.00000000E+00  0.00000000E+00  0.00000000E+00
  0.00000000E+00  0.00000000E+00  0.00000000E+00
  0.00000000E+00  0.00000000E+00  0.00000000E+00
  0.00000000E+00  0.00000000E+00  0.00000000E+00
  0.00000000E+00  0.00000000E+00  0.00000000E+00
  0.00000000E+00  0.00000000E+00  0.00000000E+00
  0.00000000E+00  0.00000000E+00  0.00000000E+00
  0.00000000E+00  0.00000000E+00  0.00000000E+00
  0.00000000E+00  0.00000000E+00  0.00000000E+00
  0.00000000E+00  0.00000000E+00  0.00000000E+00
  0.00000000E+00  0.00000000E+00  0.00000000E+00
  0.00000000E+00  0.00000000E+00  0.00000000E+00
  0.00000000E+00  0.00000000E+00  0.00000000E+00
  0.00000000E+00  0.00000000E+00  0.00000000E+00
  0.00000000E+00  0.00000000E+00  0.00000000E+00
  0.00000000E+00  0.00000000E+00  0.00000000E+00
  0.00000000E+00  0.00000000E+00  0.00000000E+00
  0.00000000E+00  0.00000000E+00  0.00000000E+00
  0.00000000E+00  0.00000000E+00  0.00000000E+00
  0.00000000E+00  0.00000000E+00  0.00000000E+00
  0.00000000E+00  0.00000000E+00  0.00000000E+00
  0.00000000E+00  0.00000000E+00  0.00000000E+00
  0.00000000E+00  0.00000000E+00  0.00000000E+00
  0.00000000E+00  0.00000000E+00  0.00000000E+00
  0.00000000E+00  0.00000000E+00  0.00000000E+00
  0.00000000E+00  0.00000000E+00  0.00000000E+00
  0.00000000E+00  0.00000000E+00  0.00000000E+00
  0.00000000E+00  0.00000000E+00  0.00000000E+00
  0.00000000E+00  0.00000000E+00  0.00000000E+00
  0.00000000E+00  0.00000000E+00  0.00000000E+00
  0.00000000E+00  0.00000000E+00  0.00000000E+00
  0.00000000E+00  0.00000000E+00  0.00000000E+00
  0.00000000E+00  0.00000000E+00  0.00000000E+00
  0.00000000E+00  0.00000000E+00  0.00000000E+00
  0.00000000E+00  0.00000000E+00  0.00000000E+00
  0.00000000E+00  0.00000000E+00  0.00000000E+00
  0.00000000E+00  0.00000000E+00  0.00000000E+00
  0.00000000E+00  0.00000000E+00  0.00000000E+00
  0.00000000E+00  0.00000000E+00  0.00000000E+00
  0.00000000E+00  0.00000000E+00  0.00000000E+00
  0.00000000E+00  0.00000000E+00  0.00000000E+00
  0.00000000E+00  0.00000000E+00  0.00000000E+00
  0.00000000E+00  0.00000000E+00  0.00000000E+00
  0.00000000E+00  0.00000000E+00  0.00000000E+00
  0.00000000E+00  0.00000000E+00  0.00000000E+00
  0.00000000E+00  0.00000000E+00  0.00000000E+00
  0.00000000E+00  0.00000000E+00  0.00000000E+00
  0.00000000E+00  0.00000000E+00  0.00000000E+00
  0.00000000E+00  0.00000000E+00  0.00000000E+00
  0.00000000E+00  0.00000000E+00  0.00000000E+00
  0.00000000E+00  0.00000000E+00  0.00000000E+00
  0.00000000E+00  0.00000000E+00  0.00000000E+00
  0.00000000E+00  0.00000000E+00  0.00000000E+00
  0.00000000E+00  0.00000000E+00  0.00000000E+00
  0.00000000E+00  0.00000000E+00  0.00000000E+00
  0.00000000E+00  0.00000000E+00  0.00000000E+00
  0.00000000E+00  0.00000000E+00  0.00000000E+00
  0.00000000E+00  0.00000000E+00  0.00000000E+00
  0.00000000E+00  0.00000000E+00  0.00000000E+00
  0.00000000E+00  0.00000000E+00  0.00000000E+00
  0.00000000E+00  0.00000000E+00  0.00000000E+00
  0.00000000E+00  0.00000000E+00  0.00000000E+00
  0.00000000E+00  0.00000000E+00  0.00000000E+00
  0.00000000E+00  0.00000000E+00  0.00000000E+00
  0.00000000E+00  0.00000000E+00  0.00000000E+00
  0.00000000E+00  0.00000000E+00  0.00000000E+00
  0.00000000E+00  0.00000000E+00  0.00000000E+00
  0.00000000E+00  0.00000000E+00  0.00000000E+00
  0.00000000E+00  0.00000000E+00  0.00000000E+00
  0.00000000E+00  0.00000000E+00  0.00000000E+00
