In48 Ga6 Cu24 Ag30 Se108                
   1.0000000000000000     
    16.4845639011301692   -0.0174684041540771   -7.3555389950834824
    -3.2740791152302453   16.1318488371199003   -7.3699879952378460
    -0.0649321695368276   -0.0437773232123161   22.0354524920069252
   In   Ga   Cu   Ag   Se
    48     6    24    30   108
Direct
  0.1718146390291579  0.5035030935175300  0.9988139755737180
  0.4965607973249462  0.5032167570905770  0.9994171964727627
  0.8316425777375329  0.5062773104913987  0.0029763228175526
  0.1653021117846123  0.8321380908380078  0.0005752124558285
  0.4980559605496993  0.8273235807211705  0.9973861908191495
  0.8367665027156548  0.8304803130623739  0.0007808406810454
  0.4985689227158829  0.1670362826354364  0.0001517119390471
  0.1704084175507177  0.5012997309343277  0.3315915779432714
  0.5009614434892526  0.5041759329431912  0.3315557399415141
  0.8275463742154798  0.5036945193915727  0.3307771249841593
  0.1641306048816773  0.8343768916281675  0.3283431860021224
  0.8306265825965156  0.8318365279194779  0.3304894196877157
  0.1696921645348084  0.1597054318867706  0.3316498144859708
  0.4949489366938309  0.1644566849574076  0.3320022605515618
  0.8353960106390801  0.1662497864284518  0.3331994296325078
  0.5018327442280039  0.4976378380220012  0.6660786583528946
  0.8357733467853237  0.5018584271866473  0.6692575467945190
  0.1635559773289188  0.8355790944557171  0.6685134992021489
  0.5043304168457112  0.8320277336404729  0.6692148460057794
  0.8362437726484515  0.8330949264595304  0.6691353257126309
  0.1625526216513862  0.1667423362865392  0.6675821095192234
  0.5041214663015765  0.1702903125458377  0.6682544443685217
  0.8347491704948879  0.1652840374235325  0.6666587545597196
  0.2509554289053213  0.4172641888408251  0.1621272151293383
  0.5820139501359520  0.4214461733905708  0.1643054739752188
  0.9098167989823267  0.4118148217717206  0.1628098993398481
  0.2590144317418037  0.7536133058072636  0.1705043337286014
  0.5790521449796913  0.7463995329948077  0.1656747006694701
  0.5850893946702342  0.0813145688825259  0.1654228054008158
  0.9179230660910704  0.0838700035409516  0.1646825149467617
  0.2498010470964971  0.4156371064538789  0.5025464049590127
  0.5833989587037891  0.4170312522421185  0.5026035898621828
  0.9216735481664244  0.4211957811925160  0.5046633555461497
  0.2518550088111553  0.7513992506468128  0.4985138764764230
  0.5869441337401824  0.7519771435914819  0.4986644921613390
  0.9122220435122230  0.7504452576684741  0.5015992461521392
  0.2510698548263974  0.0845793216381310  0.4991037796877080
  0.5796936567130260  0.0789206654806378  0.4989101101362436
  0.9160479365121006  0.0812923446459166  0.5003601476460844
  0.2481463672357194  0.4211269334864198  0.8319135784770140
  0.5843997169529658  0.4189108240936150  0.8349712212780958
  0.9155918345962561  0.4156995640091523  0.8314047653778402
  0.2463130370427820  0.7454612742282265  0.8327859507298285
  0.5843045202032755  0.7490160416967626  0.8347079627853375
  0.9180593289261907  0.7511660781650775  0.8319143813266123
  0.2461323917543368  0.0835645724987444  0.8361510128386129
  0.5882950100821205  0.0819729498138386  0.8347660029590713
  0.9195421253498779  0.0828136469393002  0.8394623302444089
  0.1707390811068237  0.1633103157386273  0.0013141256317581
  0.8308007633471775  0.1648557378536140  0.9973126512542763
  0.5012111084001702  0.8293872192050884  0.3349881873838427
  0.1645217674307062  0.5017373835743513  0.6703962723260801
  0.9120338432689010  0.7512936503084333  0.1635147702473603
  0.2486530732607406  0.0765508471628635  0.1638517416800127
  0.3338719634648442  0.3391072671761535  0.0030938334219641
  0.3296340025764337  0.6627684692846287  0.9961987568210446
  0.6629429403282501  0.6654400106309950  0.0017124457304192
  0.3366977930211092  0.6653770273802735  0.3282624681872974
  0.6629013574158904  0.6710428266769313  0.3291425712269458
  0.9997108495730060  0.9935489278530767  0.3265796195979718
  0.3331261494734221  0.0025940613362181  0.3299053648677770
  0.0017551436559486  0.3400540613558505  0.6708611865793941
  0.6637283777239844  0.3300809781523242  0.6666528029971701
  0.0055830813432536  0.6692509428478814  0.6742974669342345
  0.6716154230960072  0.6728719355806518  0.6698948478857361
  0.9921525449413551  0.9979710458622861  0.6667814571562403
  0.4174802915274896  0.5868048953009577  0.1671924671380509
  0.7474714279691739  0.5885208882152071  0.1667380135983407
  0.0856354963342696  0.9177366148218979  0.1712508928714342
  0.7484348213444463  0.2475273771584412  0.1604769373447681
  0.7521764771573274  0.9123290024531201  0.4979826889110441
  0.4219778784135571  0.2466442518673020  0.5009668899575175
  0.0853347859412708  0.5837455119806521  0.8301913965210090
  0.4167879866672521  0.5851313588087379  0.8353956317216458
  0.0813942372899490  0.9165321766686034  0.8307609178863729
  0.4161170443099351  0.9149119207253946  0.8333341006966251
  0.7528953627741970  0.9152686224470727  0.8365237439299165
  0.7508032555441062  0.2534794853513773  0.8355152036293987
  0.9991808145610861  0.3348277246583393  0.9976874182732871
  0.6706152559699063  0.3319514005959547  0.9994889400432996
  0.0090352648508656  0.6661088248312907  0.0020524500207273
  0.0015942348543021  0.0008526437354632  0.0010225488810249
  0.3286907360048517  0.9937793036724827  0.9955469284224776
  0.6669540700348691  0.0024688740942835  0.9977167383970880
  0.9971656330008045  0.3357241635511059  0.3286504167701523
  0.3308112511780905  0.3289612994568856  0.3362521138323160
  0.6695741990758819  0.3286018035564524  0.3280374108509605
  0.9956843185410023  0.6705428889679794  0.3286520176672454
  0.6665325564345892  0.9973927625725807  0.3420442970617401
  0.3329059909075340  0.3372554843949018  0.6644625251994540
  0.3321762509809147  0.6652785900904306  0.6710560522285149
  0.3351315179361762  0.9989770624698266  0.6718529154276212
  0.6768417183340176  0.0029151145611550  0.6730154283130645
  0.0833831845284649  0.5892799545482603  0.1703963377552640
  0.4191384761403896  0.9128375322294318  0.1700448016307163
  0.7556753780674228  0.9134344532953236  0.1661780533566173
  0.0814861242990830  0.2460712314038958  0.1586937461228430
  0.4099924165388700  0.2496472931446831  0.1647447262608637
  0.0806387797040955  0.5823725590958446  0.5029598517578293
  0.4178287200865327  0.5886052344739809  0.4986005786674284
  0.7483519667224883  0.5877039037087428  0.5040689414223039
  0.0774681903467922  0.9200809436507882  0.5012760738633517
  0.4119037876610960  0.9133306070745206  0.4902202985999295
  0.0818774827971609  0.2428780651444313  0.5006199279099945
  0.7487821597957804  0.2540766702768593  0.5054211503349535
  0.7459484819720359  0.5811769876104762  0.8294572421321149
  0.0851274673589373  0.2488375498238824  0.8361614562934463
  0.4114706578311242  0.2474174795273782  0.8355095730081956
  0.1238969323574253  0.4633490023234330  0.0814342854604959
  0.4471560446723828  0.4621792700836451  0.0833358943774414
  0.7870758287217967  0.4693881576072343  0.0895661623077260
  0.1274939200219052  0.8006430581534900  0.0934541535984792
  0.4472543871712915  0.7811454027198650  0.0762756661837258
  0.7874093289908686  0.7795080594090180  0.0786517591937184
  0.1361965155061000  0.1225299939684703  0.0831324521023689
  0.4559296216983739  0.1220288835985883  0.0827218136406458
  0.7914067543986576  0.1335621428740410  0.0816969303618649
  0.1270406428543467  0.4602063963919250  0.4163748817831348
  0.4577759216000743  0.4577953811685092  0.4143402258645779
  0.7919804632626963  0.4608099329602950  0.4189968209371742
  0.1243958359382233  0.7959568276589195  0.4162779007708508
  0.4541350716114465  0.7835910820198677  0.4073154320477670
  0.7813133744458653  0.7905567124941228  0.4141761154322054
  0.1156846239879528  0.1138940933777803  0.4094931979734682
  0.4485532541211299  0.1228407030599001  0.4161378041177883
  0.7900451670217024  0.1268223925267193  0.4181644320326114
  0.1165299466016592  0.4616041129083825  0.7465947328824356
  0.4570906896505136  0.4680904288540262  0.7561400475750091
  0.7821026733290850  0.4487517623434201  0.7431373914005306
  0.1166527094533620  0.7931227970932397  0.7528033590698655
  0.4561811855080364  0.7979519903187509  0.7559859500595181
  0.7849801718146310  0.7946231496393139  0.7523693471456170
  0.1136505081671473  0.1136389430244691  0.7438040529138377
  0.4621186320785782  0.1273369768417254  0.7526865703978203
  0.7967050075767901  0.1374794269546555  0.7611471565382857
  0.3046123150691642  0.6280930333130499  0.0838584735980916
  0.6312630367099672  0.6250887009379795  0.0834262923211355
  0.9577803999316217  0.6350571496983690  0.0883529886078307
  0.2924198392907940  0.9599232807162110  0.0878609460841062
  0.6261084991512647  0.9533788689049132  0.0805818871841026
  0.9683206243477542  0.9547186906502603  0.0890588688317706
  0.2868128211470733  0.2871750502343531  0.0715989081143675
  0.6304917072160379  0.2904614748834575  0.0865453180493319
  0.9491114185312810  0.2835301870938025  0.0750317655514650
  0.2961659289699128  0.6302360286547710  0.4086342500374727
  0.6308705649912056  0.6291624874588422  0.4102417832632881
  0.9577742344080988  0.6274465757630594  0.4159957961044611
  0.2913519455846298  0.9623997123432346  0.4068574789986599
  0.6251798820703840  0.9453258056413532  0.4209606388876992
  0.9580610689195410  0.9602768669818289  0.4076847033001982
  0.2997676335906547  0.2859628304966719  0.4259005011939081
  0.6231536309412462  0.2912207764743684  0.4142069887859492
  0.9613895775302197  0.2942973045881701  0.4175603954654434
  0.2909491964800139  0.6142670213275352  0.7523818038217911
  0.6262056430996381  0.6285972545831484  0.7424863973295146
  0.9687251537077870  0.6258112243767258  0.7518855698689180
  0.2976407353230570  0.9568985059390513  0.7589395857964192
  0.6369894925469879  0.9543739707191818  0.7566075592868415
  0.9664576014467627  0.9595455165987232  0.7525109457040315
  0.2899390165949285  0.2926080374034044  0.7487207836194614
  0.6366586735547770  0.2947947390149324  0.7535844722606768
  0.9634729541809151  0.2934636354456970  0.7461676881638155
  0.2100384940342650  0.3731564371113762  0.2465214320835685
  0.5406214861605392  0.3747371457027882  0.2472226622129980
  0.8617488476624473  0.3685823812199658  0.2440016584692444
  0.2179439066701363  0.7074842578856959  0.2543614701846835
  0.5371721363495752  0.7051440748053466  0.2528369491556290
  0.8674348361312170  0.7051869705419591  0.2380645465412456
  0.2106561931676865  0.0306329673298080  0.2433089915435929
  0.5451665605324223  0.0413544422087995  0.2523918301995849
  0.8837149372770412  0.0391107815396055  0.2529321695280089
  0.2000374100776412  0.3817368017173877  0.5879149289642811
  0.5422506373853366  0.3626858636239234  0.5838517168028687
  0.8825507269419361  0.3742157789489937  0.5891768283260248
  0.2082939808979987  0.7103529063472749  0.5837365364274589
  0.5535195679807074  0.7071650121722328  0.5875232749710335
  0.8858445065510097  0.7046142162518834  0.5927678790989646
  0.2102153704017837  0.0428295357847475  0.5849348081032915
  0.5424439558784400  0.0377954222748471  0.5860657807721452
  0.8718816661009328  0.0291934079223992  0.5815369399076218
  0.2168615751547733  0.3735134388040180  0.9198097620148786
  0.5397666243891237  0.3744317650977464  0.9173037214979374
  0.8671300314986325  0.3735692466225231  0.9142224903727083
  0.2070879888314110  0.6982564799619340  0.9183472900275831
  0.5425343417731199  0.6964613143526250  0.9163179931693577
  0.8785274983603912  0.7044399538346582  0.9150937429493879
  0.1974319122339381  0.0375113087476180  0.9161103751181372
  0.5319192919142424  0.0349992117536715  0.9104607100147462
  0.8662459676068437  0.0388123387340258  0.9190678343546281
  0.0377745517650894  0.5381320564982914  0.2483502839746592
  0.3749237913665624  0.5505755023260193  0.2461843810842765
  0.7052536718713185  0.5566992958587491  0.2480614769457432
  0.0320729650101370  0.8749648185185137  0.2419945605313529
  0.3857918829579958  0.8825916522908770  0.2650586458097521
  0.7033910100437097  0.8751604399746284  0.2480551286339150
  0.0466186374234709  0.2090245799923878  0.2497921179779254
  0.3636887347302746  0.1985976926354738  0.2435688740088082
  0.7137319709838721  0.2067426335993119  0.2405363836673331
  0.0484136403037994  0.5516831987511566  0.5979465424913215
  0.3762939446431446  0.5424629178089546  0.5824835497125775
  0.7064942811733985  0.5504478384177176  0.5915069369065620
  0.0350641123143518  0.8835995787705428  0.5886413070923737
  0.3799906110488678  0.8767896910407984  0.5837062015109638
  0.7158135534233807  0.8786963716750549  0.5803626495120326
  0.0356488876371515  0.2166046618127666  0.5907751737814024
  0.3791786224960987  0.2130550156833735  0.5801292325677636
  0.7033009849272460  0.2115359409142599  0.5882060861914766
  0.0454451164562357  0.5430416022909341  0.9085758961804373
  0.3735808334890436  0.5526973220685889  0.9153429614608797
  0.7047096440644722  0.5525621626158710  0.9217213396948196
  0.0452302988754170  0.8781724303555052  0.9112723196524897
  0.3754516191850570  0.8719949126277911  0.9094572208033114
  0.7135902283324782  0.8761825028570840  0.9146483265453398
  0.0511939063257500  0.2054429849066537  0.9257114999669014
  0.3689326804722270  0.2168769454938584  0.9246992584117848
  0.7178568451271445  0.2086995141175194  0.9155212406944955

  0.00000000E+00  0.00000000E+00  0.00000000E+00
  0.00000000E+00  0.00000000E+00  0.00000000E+00
  0.00000000E+00  0.00000000E+00  0.00000000E+00
  0.00000000E+00  0.00000000E+00  0.00000000E+00
  0.00000000E+00  0.00000000E+00  0.00000000E+00
  0.00000000E+00  0.00000000E+00  0.00000000E+00
  0.00000000E+00  0.00000000E+00  0.00000000E+00
  0.00000000E+00  0.00000000E+00  0.00000000E+00
  0.00000000E+00  0.00000000E+00  0.00000000E+00
  0.00000000E+00  0.00000000E+00  0.00000000E+00
  0.00000000E+00  0.00000000E+00  0.00000000E+00
  0.00000000E+00  0.00000000E+00  0.00000000E+00
  0.00000000E+00  0.00000000E+00  0.00000000E+00
  0.00000000E+00  0.00000000E+00  0.00000000E+00
  0.00000000E+00  0.00000000E+00  0.00000000E+00
  0.00000000E+00  0.00000000E+00  0.00000000E+00
  0.00000000E+00  0.00000000E+00  0.00000000E+00
  0.00000000E+00  0.00000000E+00  0.00000000E+00
  0.00000000E+00  0.00000000E+00  0.00000000E+00
  0.00000000E+00  0.00000000E+00  0.00000000E+00
  0.00000000E+00  0.00000000E+00  0.00000000E+00
  0.00000000E+00  0.00000000E+00  0.00000000E+00
  0.00000000E+00  0.00000000E+00  0.00000000E+00
  0.00000000E+00  0.00000000E+00  0.00000000E+00
  0.00000000E+00  0.00000000E+00  0.00000000E+00
  0.00000000E+00  0.00000000E+00  0.00000000E+00
  0.00000000E+00  0.00000000E+00  0.00000000E+00
  0.00000000E+00  0.00000000E+00  0.00000000E+00
  0.00000000E+00  0.00000000E+00  0.00000000E+00
  0.00000000E+00  0.00000000E+00  0.00000000E+00
  0.00000000E+00  0.00000000E+00  0.00000000E+00
  0.00000000E+00  0.00000000E+00  0.00000000E+00
  0.00000000E+00  0.00000000E+00  0.00000000E+00
  0.00000000E+00  0.00000000E+00  0.00000000E+00
  0.00000000E+00  0.00000000E+00  0.00000000E+00
  0.00000000E+00  0.00000000E+00  0.00000000E+00
  0.00000000E+00  0.00000000E+00  0.00000000E+00
  0.00000000E+00  0.00000000E+00  0.00000000E+00
  0.00000000E+00  0.00000000E+00  0.00000000E+00
  0.00000000E+00  0.00000000E+00  0.00000000E+00
  0.00000000E+00  0.00000000E+00  0.00000000E+00
  0.00000000E+00  0.00000000E+00  0.00000000E+00
  0.00000000E+00  0.00000000E+00  0.00000000E+00
  0.00000000E+00  0.00000000E+00  0.00000000E+00
  0.00000000E+00  0.00000000E+00  0.00000000E+00
  0.00000000E+00  0.00000000E+00  0.00000000E+00
  0.00000000E+00  0.00000000E+00  0.00000000E+00
  0.00000000E+00  0.00000000E+00  0.00000000E+00
  0.00000000E+00  0.00000000E+00  0.00000000E+00
  0.00000000E+00  0.00000000E+00  0.00000000E+00
  0.00000000E+00  0.00000000E+00  0.00000000E+00
  0.00000000E+00  0.00000000E+00  0.00000000E+00
  0.00000000E+00  0.00000000E+00  0.00000000E+00
  0.00000000E+00  0.00000000E+00  0.00000000E+00
  0.00000000E+00  0.00000000E+00  0.00000000E+00
  0.00000000E+00  0.00000000E+00  0.00000000E+00
  0.00000000E+00  0.00000000E+00  0.00000000E+00
  0.00000000E+00  0.00000000E+00  0.00000000E+00
  0.00000000E+00  0.00000000E+00  0.00000000E+00
  0.00000000E+00  0.00000000E+00  0.00000000E+00
  0.00000000E+00  0.00000000E+00  0.00000000E+00
  0.00000000E+00  0.00000000E+00  0.00000000E+00
  0.00000000E+00  0.00000000E+00  0.00000000E+00
  0.00000000E+00  0.00000000E+00  0.00000000E+00
  0.00000000E+00  0.00000000E+00  0.00000000E+00
  0.00000000E+00  0.00000000E+00  0.00000000E+00
  0.00000000E+00  0.00000000E+00  0.00000000E+00
  0.00000000E+00  0.00000000E+00  0.00000000E+00
  0.00000000E+00  0.00000000E+00  0.00000000E+00
  0.00000000E+00  0.00000000E+00  0.00000000E+00
  0.00000000E+00  0.00000000E+00  0.00000000E+00
  0.00000000E+00  0.00000000E+00  0.00000000E+00
  0.00000000E+00  0.00000000E+00  0.00000000E+00
  0.00000000E+00  0.00000000E+00  0.00000000E+00
  0.00000000E+00  0.00000000E+00  0.00000000E+00
  0.00000000E+00  0.00000000E+00  0.00000000E+00
  0.00000000E+00  0.00000000E+00  0.00000000E+00
  0.00000000E+00  0.00000000E+00  0.00000000E+00
  0.00000000E+00  0.00000000E+00  0.00000000E+00
  0.00000000E+00  0.00000000E+00  0.00000000E+00
  0.00000000E+00  0.00000000E+00  0.00000000E+00
  0.00000000E+00  0.00000000E+00  0.00000000E+00
  0.00000000E+00  0.00000000E+00  0.00000000E+00
  0.00000000E+00  0.00000000E+00  0.00000000E+00
  0.00000000E+00  0.00000000E+00  0.00000000E+00
  0.00000000E+00  0.00000000E+00  0.00000000E+00
  0.00000000E+00  0.00000000E+00  0.00000000E+00
  0.00000000E+00  0.00000000E+00  0.00000000E+00
  0.00000000E+00  0.00000000E+00  0.00000000E+00
  0.00000000E+00  0.00000000E+00  0.00000000E+00
  0.00000000E+00  0.00000000E+00  0.00000000E+00
  0.00000000E+00  0.00000000E+00  0.00000000E+00
  0.00000000E+00  0.00000000E+00  0.00000000E+00
  0.00000000E+00  0.00000000E+00  0.00000000E+00
  0.00000000E+00  0.00000000E+00  0.00000000E+00
  0.00000000E+00  0.00000000E+00  0.00000000E+00
  0.00000000E+00  0.00000000E+00  0.00000000E+00
  0.00000000E+00  0.00000000E+00  0.00000000E+00
  0.00000000E+00  0.00000000E+00  0.00000000E+00
  0.00000000E+00  0.00000000E+00  0.00000000E+00
  0.00000000E+00  0.00000000E+00  0.00000000E+00
  0.00000000E+00  0.00000000E+00  0.00000000E+00
  0.00000000E+00  0.00000000E+00  0.00000000E+00
  0.00000000E+00  0.00000000E+00  0.00000000E+00
  0.00000000E+00  0.00000000E+00  0.00000000E+00
  0.00000000E+00  0.00000000E+00  0.00000000E+00
  0.00000000E+00  0.00000000E+00  0.00000000E+00
  0.00000000E+00  0.00000000E+00  0.00000000E+00
  0.00000000E+00  0.00000000E+00  0.00000000E+00
  0.00000000E+00  0.00000000E+00  0.00000000E+00
  0.00000000E+00  0.00000000E+00  0.00000000E+00
  0.00000000E+00  0.00000000E+00  0.00000000E+00
  0.00000000E+00  0.00000000E+00  0.00000000E+00
  0.00000000E+00  0.00000000E+00  0.00000000E+00
  0.00000000E+00  0.00000000E+00  0.00000000E+00
  0.00000000E+00  0.00000000E+00  0.00000000E+00
  0.00000000E+00  0.00000000E+00  0.00000000E+00
  0.00000000E+00  0.00000000E+00  0.00000000E+00
  0.00000000E+00  0.00000000E+00  0.00000000E+00
  0.00000000E+00  0.00000000E+00  0.00000000E+00
  0.00000000E+00  0.00000000E+00  0.00000000E+00
  0.00000000E+00  0.00000000E+00  0.00000000E+00
  0.00000000E+00  0.00000000E+00  0.00000000E+00
  0.00000000E+00  0.00000000E+00  0.00000000E+00
  0.00000000E+00  0.00000000E+00  0.00000000E+00
  0.00000000E+00  0.00000000E+00  0.00000000E+00
  0.00000000E+00  0.00000000E+00  0.00000000E+00
  0.00000000E+00  0.00000000E+00  0.00000000E+00
  0.00000000E+00  0.00000000E+00  0.00000000E+00
  0.00000000E+00  0.00000000E+00  0.00000000E+00
  0.00000000E+00  0.00000000E+00  0.00000000E+00
  0.00000000E+00  0.00000000E+00  0.00000000E+00
  0.00000000E+00  0.00000000E+00  0.00000000E+00
  0.00000000E+00  0.00000000E+00  0.00000000E+00
  0.00000000E+00  0.00000000E+00  0.00000000E+00
  0.00000000E+00  0.00000000E+00  0.00000000E+00
  0.00000000E+00  0.00000000E+00  0.00000000E+00
  0.00000000E+00  0.00000000E+00  0.00000000E+00
  0.00000000E+00  0.00000000E+00  0.00000000E+00
  0.00000000E+00  0.00000000E+00  0.00000000E+00
  0.00000000E+00  0.00000000E+00  0.00000000E+00
  0.00000000E+00  0.00000000E+00  0.00000000E+00
  0.00000000E+00  0.00000000E+00  0.00000000E+00
  0.00000000E+00  0.00000000E+00  0.00000000E+00
  0.00000000E+00  0.00000000E+00  0.00000000E+00
  0.00000000E+00  0.00000000E+00  0.00000000E+00
  0.00000000E+00  0.00000000E+00  0.00000000E+00
  0.00000000E+00  0.00000000E+00  0.00000000E+00
  0.00000000E+00  0.00000000E+00  0.00000000E+00
  0.00000000E+00  0.00000000E+00  0.00000000E+00
  0.00000000E+00  0.00000000E+00  0.00000000E+00
  0.00000000E+00  0.00000000E+00  0.00000000E+00
  0.00000000E+00  0.00000000E+00  0.00000000E+00
  0.00000000E+00  0.00000000E+00  0.00000000E+00
  0.00000000E+00  0.00000000E+00  0.00000000E+00
  0.00000000E+00  0.00000000E+00  0.00000000E+00
  0.00000000E+00  0.00000000E+00  0.00000000E+00
  0.00000000E+00  0.00000000E+00  0.00000000E+00
  0.00000000E+00  0.00000000E+00  0.00000000E+00
  0.00000000E+00  0.00000000E+00  0.00000000E+00
  0.00000000E+00  0.00000000E+00  0.00000000E+00
  0.00000000E+00  0.00000000E+00  0.00000000E+00
  0.00000000E+00  0.00000000E+00  0.00000000E+00
  0.00000000E+00  0.00000000E+00  0.00000000E+00
  0.00000000E+00  0.00000000E+00  0.00000000E+00
  0.00000000E+00  0.00000000E+00  0.00000000E+00
  0.00000000E+00  0.00000000E+00  0.00000000E+00
  0.00000000E+00  0.00000000E+00  0.00000000E+00
  0.00000000E+00  0.00000000E+00  0.00000000E+00
  0.00000000E+00  0.00000000E+00  0.00000000E+00
  0.00000000E+00  0.00000000E+00  0.00000000E+00
  0.00000000E+00  0.00000000E+00  0.00000000E+00
  0.00000000E+00  0.00000000E+00  0.00000000E+00
  0.00000000E+00  0.00000000E+00  0.00000000E+00
  0.00000000E+00  0.00000000E+00  0.00000000E+00
  0.00000000E+00  0.00000000E+00  0.00000000E+00
  0.00000000E+00  0.00000000E+00  0.00000000E+00
  0.00000000E+00  0.00000000E+00  0.00000000E+00
  0.00000000E+00  0.00000000E+00  0.00000000E+00
  0.00000000E+00  0.00000000E+00  0.00000000E+00
  0.00000000E+00  0.00000000E+00  0.00000000E+00
  0.00000000E+00  0.00000000E+00  0.00000000E+00
  0.00000000E+00  0.00000000E+00  0.00000000E+00
  0.00000000E+00  0.00000000E+00  0.00000000E+00
  0.00000000E+00  0.00000000E+00  0.00000000E+00
  0.00000000E+00  0.00000000E+00  0.00000000E+00
  0.00000000E+00  0.00000000E+00  0.00000000E+00
  0.00000000E+00  0.00000000E+00  0.00000000E+00
  0.00000000E+00  0.00000000E+00  0.00000000E+00
  0.00000000E+00  0.00000000E+00  0.00000000E+00
  0.00000000E+00  0.00000000E+00  0.00000000E+00
  0.00000000E+00  0.00000000E+00  0.00000000E+00
  0.00000000E+00  0.00000000E+00  0.00000000E+00
  0.00000000E+00  0.00000000E+00  0.00000000E+00
  0.00000000E+00  0.00000000E+00  0.00000000E+00
  0.00000000E+00  0.00000000E+00  0.00000000E+00
  0.00000000E+00  0.00000000E+00  0.00000000E+00
  0.00000000E+00  0.00000000E+00  0.00000000E+00
  0.00000000E+00  0.00000000E+00  0.00000000E+00
  0.00000000E+00  0.00000000E+00  0.00000000E+00
  0.00000000E+00  0.00000000E+00  0.00000000E+00
  0.00000000E+00  0.00000000E+00  0.00000000E+00
  0.00000000E+00  0.00000000E+00  0.00000000E+00
  0.00000000E+00  0.00000000E+00  0.00000000E+00
  0.00000000E+00  0.00000000E+00  0.00000000E+00
  0.00000000E+00  0.00000000E+00  0.00000000E+00
  0.00000000E+00  0.00000000E+00  0.00000000E+00
  0.00000000E+00  0.00000000E+00  0.00000000E+00
  0.00000000E+00  0.00000000E+00  0.00000000E+00
  0.00000000E+00  0.00000000E+00  0.00000000E+00
  0.00000000E+00  0.00000000E+00  0.00000000E+00
  0.00000000E+00  0.00000000E+00  0.00000000E+00
  0.00000000E+00  0.00000000E+00  0.00000000E+00
  0.00000000E+00  0.00000000E+00  0.00000000E+00
  0.00000000E+00  0.00000000E+00  0.00000000E+00
  0.00000000E+00  0.00000000E+00  0.00000000E+00
