In12 Ga42 Cu12 Ag42 Se108               
   1.0000000000000000     
    16.2848659279901398   -0.0015427164183802   -7.5378368393478299
    -3.4797203257031568   15.9306013178103694   -7.5405228766187653
     0.0059381539371991    0.0076832272626895   21.3990930976122549
   In   Ga   Cu   Ag   Se
    12    42    12    42   108
Direct
  0.8355505851381011  0.4977040036412532  0.9959101973934494
  0.8333510314943453  0.8277090153238831  0.9978283251281397
  0.1646181513858380  0.5052023326352852  0.3303037496076939
  0.8299636669229713  0.8261979997758644  0.3334899041524224
  0.1677448615682167  0.8356516445230966  0.6685481818349501
  0.8404506189644749  0.1703283897768912  0.6687027668962386
  0.9195330767419350  0.7421185474723018  0.1677464244306321
  0.2477787642478120  0.0842841084987214  0.1638230617359611
  0.2480060782388449  0.4198861095404638  0.5021220448957990
  0.5860450221079887  0.4192286729067405  0.5005713061206976
  0.5890916970933091  0.7487363213411626  0.5020689065925907
  0.5810568845324298  0.0833929045338877  0.4981155516222628
  0.1633269986408337  0.4955070377418238  0.9997928506352309
  0.4981959697017118  0.4973498700760928  0.9972473647240108
  0.1648803629788205  0.8265700213772291  0.9988272076226465
  0.4993640862224140  0.8280946358812145  0.9991843597059216
  0.1666172227782283  0.1755984719268966  0.9964146029030800
  0.4970772115299340  0.1728468008251554  0.0019054008826203
  0.8339549788006551  0.1707026643780623  0.9980088304587724
  0.5016112660883749  0.5007544861134434  0.3293414376568080
  0.8316768988132850  0.5044980203229130  0.3327484357620918
  0.1679689625261105  0.8305014437908227  0.3350741184822752
  0.4991524051732767  0.8262782132244268  0.3290495759182051
  0.1663018560867826  0.1648642986977507  0.3334860174159431
  0.5005803844913501  0.1662880097901507  0.3288221540938494
  0.8315071574451522  0.1670731410806567  0.3312844495406679
  0.1688340465825888  0.5017080838771406  0.6706428819171890
  0.5030051121204338  0.5035002285126211  0.6728780463355051
  0.8365891116966964  0.5039758510432719  0.6679934431000589
  0.4965136665814356  0.8365045404408704  0.6724400220597175
  0.8398316334534783  0.8349689988732294  0.6729653843594576
  0.1672361360432006  0.1662564627586391  0.6694355931138034
  0.4960595965157353  0.1648080481652698  0.6685051472452912
  0.2488363145269332  0.4181305702840845  0.1636509241415212
  0.5812339946456007  0.4200293946247982  0.1637445876788561
  0.9123250748326015  0.4225039250064526  0.1624945233975481
  0.2440338904139452  0.7419578328403915  0.1634648137442909
  0.5844825932053581  0.7432661035008721  0.1656668559654051
  0.5808362123723327  0.0812920647759228  0.1629853710172711
  0.9186469169500953  0.0859320102753642  0.1661406862953996
  0.9174481098020237  0.4239047883122851  0.5001648513285986
  0.2505215391475772  0.7510044424152085  0.5031810196516702
  0.9125096372779424  0.7443479189351692  0.5013470278181558
  0.2493997252759144  0.0808938901159877  0.5017057842429224
  0.9194433421165584  0.0799635881638707  0.4972101344688369
  0.2503622648158199  0.4157381588276436  0.8339027127707084
  0.5798196196259724  0.4206243650334756  0.8314713036883674
  0.9216010201099323  0.4184810926920193  0.8345757221458570
  0.2530997716398673  0.7463618542829877  0.8374895894539023
  0.5810489492889559  0.7454222448239207  0.8329819618517789
  0.9186165345625739  0.7437225821522091  0.8337326075688338
  0.2507661126573666  0.0925892968000781  0.8364029110857203
  0.5789032063685013  0.0852980541378656  0.8348213598135317
  0.9211090142718561  0.0887736308162559  0.8359915950170631
  0.0047809015364493  0.3342949248109406  0.9984317703379588
  0.3296977482805019  0.3373140066279916  0.9976115789460067
  0.0017871812137358  0.6650124333331320  0.9962745146242611
  0.6643964686289578  0.6573666364326201  0.3304465334550173
  0.3338959817195928  0.0046561602121145  0.6701388809947630
  0.0826172742408531  0.5792516164720496  0.1587333162376723
  0.7427303626846609  0.5786904306110614  0.1663522441722094
  0.0800271666793293  0.5845958336055403  0.5008075547521997
  0.7523476339467550  0.5845236164592649  0.4988913776706312
  0.4158220718177148  0.5830043742335462  0.8345571064977335
  0.7541795976358614  0.5811211931165161  0.8302873239394302
  0.0899084646327282  0.2569667521125538  0.8399816030563656
  0.6665279595358911  0.3325680145476682  0.0002080242491616
  0.3330915569686113  0.6573713910619858  0.0000972658780753
  0.6585636134741364  0.6551619869306364  0.9941518175129929
  0.0009121239254810  0.0016572794605381  0.0002991711958842
  0.3297685716165759  0.9990982079228345  0.9964461107522240
  0.6665797646849683  0.0040468669461688  0.9999009961370078
  0.9979093228884466  0.3328633394559404  0.3301607995413534
  0.3352436262021357  0.3354438373154949  0.3310770298930237
  0.6706495318069088  0.3365564863245396  0.3315027612450265
  0.0022987606301399  0.6629581062269168  0.3378718391330224
  0.3310118627117262  0.6682309294803872  0.3284255147618964
  0.0015872746940460  0.0092557181571848  0.3363803457246135
  0.3321347043213052  0.9914333854529218  0.3305688367174682
  0.6640231858438597  0.9998927449790571  0.3292970862992064
  0.0001733799182304  0.3318033911393314  0.6626023155375833
  0.3387214370262583  0.3315306326688585  0.6700137333565763
  0.6703033867695964  0.3389073028593188  0.6752440834378319
  0.0022228279494740  0.6655534855641605  0.6636986758006174
  0.3284486506838391  0.6683416087722094  0.6700574834351869
  0.6712687625323071  0.6666412336255689  0.6733201506397322
  0.0026388210223729  0.0066145491588898  0.6718569277669815
  0.6668434878668208  0.0011037708612776  0.6748641577898766
  0.4217584254306885  0.5817077277317111  0.1647832296340042
  0.0839211931730048  0.9078281379984645  0.1669987550860554
  0.4159652142798507  0.9089378054440900  0.1635730195051934
  0.7499899758688997  0.9198211110751870  0.1651413161506170
  0.0714150247727972  0.2536217492672392  0.1598977745126220
  0.4140947029140065  0.2540245159896344  0.1595069534498563
  0.7530434849603012  0.2520270682406363  0.1670173500480487
  0.4211993016208737  0.5881590806449637  0.5049887329306060
  0.0883764400869538  0.9180808725760699  0.5050515552065633
  0.4149996960861699  0.9140873623552963  0.5072505311480313
  0.7484712201724761  0.9097672297185042  0.4972625873321448
  0.0761166818722927  0.2544584420427043  0.4992267340989684
  0.4148802642182758  0.2509426958749970  0.4991651577272052
  0.7581254331428866  0.2501736386087217  0.4977483322500689
  0.0838367023290303  0.5808887274116756  0.8362722451246967
  0.0863093439180744  0.9181198507072637  0.8418229989578307
  0.4142236736161706  0.9196839779137136  0.8360066716420533
  0.7531754236955948  0.9200270515017053  0.8348509210309700
  0.4185002441096444  0.2509548900681438  0.8364788658102071
  0.7470838977315353  0.2532105690048567  0.8325818578711903
  0.1238932369691241  0.4568455680779238  0.0825303360100520
  0.4572814032693486  0.4496499163860719  0.0738459078041345
  0.7912932004317597  0.4662341864467834  0.0877755811794501
  0.1255323859906028  0.7806329665780822  0.0773449047500705
  0.4669829738945879  0.7832804411587730  0.0815401474058319
  0.7900073814265554  0.7847162058006703  0.0825396715447866
  0.1272951612288367  0.1330641551004135  0.0756361547049949
  0.4642467681832585  0.1244786942757301  0.0812150435502943
  0.8028768174111036  0.1275983353874324  0.0818388050093475
  0.1208574002350673  0.4685686107768703  0.4195007441978049
  0.4629364571748411  0.4651753463493549  0.4122598593685041
  0.7981426501908544  0.4683929517022491  0.4202124544892669
  0.1333815715922526  0.7901944605917990  0.4184354371422145
  0.4632106474972204  0.7939780287727274  0.4148058848047782
  0.7876725426403581  0.7740161476816851  0.4150816874524139
  0.1365347231278946  0.1308671895922799  0.4225172372519594
  0.4569395939493148  0.1253656236665108  0.4067258306877974
  0.8017763318450122  0.1210273458022328  0.4135488200878754
  0.1334996705993277  0.4581885231539502  0.7516612893991592
  0.4615924559301732  0.4671489060146712  0.7552081970770459
  0.8026276650872717  0.4645991362235264  0.7538219871042173
  0.1360217607727492  0.7908052286201865  0.7591232121170677
  0.4641564893443615  0.7910196000737812  0.7535520068519972
  0.8051443507232818  0.7930169346314386  0.7556050690271192
  0.1308037483533795  0.1368632719029392  0.7579033302907092
  0.4577850616873675  0.1198551428151049  0.7479016181135307
  0.8002758532060597  0.1248833040379935  0.7543986148458117
  0.2811779780718808  0.6185777125494880  0.0834988287115976
  0.6212704968497746  0.6168349372765078  0.0862484481682486
  0.9686190764073785  0.6232419165847958  0.0783207089455757
  0.2822383346034698  0.9482651628388226  0.0771357768347229
  0.6133744928556126  0.9558904739078002  0.0793480906677502
  0.9572529024288059  0.9624495961171959  0.0882286946104358
  0.2847649328252189  0.2993701896285046  0.0760418885659604
  0.6167265259965049  0.2940481468149869  0.0850874627983416
  0.9461002728487884  0.3001688079835034  0.0734073153279766
  0.2927911098926828  0.6351682306509758  0.4225412174681082
  0.6288468190659131  0.6171008369572775  0.4122698906229374
  0.9560119887736036  0.6227674771645511  0.4238314782099124
  0.2842561112758446  0.9557873995006645  0.4187579250230868
  0.6167298325444079  0.9492248459294856  0.4095544746195259
  0.9562701222196566  0.9582359812066272  0.4174677921603944
  0.2823741994568607  0.2882084687354265  0.4099588535354997
  0.6207954690559987  0.2856980462908894  0.4108521971963199
  0.9448232720283087  0.2950593985007757  0.4141241065135901
  0.2909854798413249  0.6219036674572962  0.7575642239157716
  0.6262831310705224  0.6227086689316650  0.7580462877931993
  0.9554004279647117  0.6245764870106143  0.7500477526094258
  0.2901655145475743  0.9730434591996584  0.7522549945317536
  0.6136326191093104  0.9597608733590874  0.7555718471478556
  0.9560006042857054  0.9614187282165858  0.7556274584364715
  0.2831970475538554  0.2907764281232090  0.7512430275226336
  0.6107161541350195  0.2918354402731893  0.7503292903113845
  0.9700193741101799  0.2996462085294240  0.7608214024979176
  0.2076577855174691  0.3775539552122069  0.2425750440325132
  0.5427066817664681  0.3843239906112004  0.2469447959515421
  0.8750062692786429  0.3891020830591998  0.2486167924634941
  0.1972442932492982  0.7068321652313969  0.2434317433530140
  0.5509082021642655  0.7099345246847477  0.2543932662851773
  0.8659855144309390  0.6934760869484293  0.2449995463538386
  0.2050146154422379  0.0459461727894919  0.2521751477450138
  0.5375593059882036  0.0465718840137654  0.2444200631337168
  0.8750081848551616  0.0523351696486216  0.2482298750283789
  0.2076572046664893  0.3812786574320981  0.5910420692554439
  0.5408248929748325  0.3842004665091707  0.5899961891518544
  0.8782339291767798  0.3881624918731674  0.5836430599869971
  0.2005983821162332  0.7033338764748436  0.5748020136406140
  0.5444678743380962  0.7216435511085280  0.5952062527906534
  0.8688600737186718  0.7096763743345491  0.5830361458374327
  0.2164369662359817  0.0491301346528061  0.5916017835756762
  0.5404679841056108  0.0485146472842928  0.5898360243436613
  0.8748792305230708  0.0412284358122150  0.5748685549693562
  0.2097515242756742  0.3783085568143107  0.9181541365464838
  0.5433965977981856  0.3845177796210493  0.9156139078793970
  0.8854022832734998  0.3718162119184640  0.9138059404496062
  0.2101793909547212  0.7121751905507168  0.9189720536025945
  0.5327942315884258  0.7066306924669021  0.9112843089549045
  0.8783099668088070  0.6974265821709693  0.9118509033813993
  0.2074064189522034  0.0552343098421773  0.9163866949890505
  0.5385011464036467  0.0555820333127954  0.9196196865907211
  0.8776691375070342  0.0544968273608504  0.9176463789478220
  0.0356239221743309  0.5399075676052618  0.2352305324143273
  0.3748776088756784  0.5345970656439931  0.2478337867352849
  0.7055988950049112  0.5410212991060064  0.2481204142644557
  0.0466491349084492  0.8723508902369232  0.2596606602076363
  0.3714251300425744  0.8570942962891550  0.2451410441783537
  0.7016262188382214  0.8644308247963650  0.2430373371521384
  0.0433506132556190  0.2017301448769899  0.2495851756216965
  0.3819020181948076  0.2069767970906398  0.2491268907670232
  0.7064154166315788  0.1979386786102140  0.2463586836401817
  0.0479953355768075  0.5362581934813591  0.5805153432170371
  0.3834114085926146  0.5423397445867764  0.5915455919083641
  0.7194719751611984  0.5445604269297633  0.5832991236678211
  0.0303522960135112  0.8669198290967444  0.5797114082444992
  0.3697072851035657  0.8748717712571761  0.5946548473390436
  0.7192597790991186  0.8759397914847469  0.5948657153710641
  0.0428929677816683  0.1967180265193562  0.5823811272185537
  0.3743618882437332  0.1974715521680466  0.5820753883306367
  0.7102491000892570  0.2119583366203273  0.5839803179024585
  0.0419570884150886  0.5390039948623624  0.9226854036785070
  0.3771041095676892  0.5323435458302868  0.9106057018421154
  0.7060245970529522  0.5346121294214541  0.9029214218923372
  0.0403483981156469  0.8629491647267145  0.9201121084782145
  0.3752536696313129  0.8641224803178957  0.9180084243562590
  0.7003323279904521  0.8658400748945496  0.9115617701393433
  0.0425182523555065  0.2134527337301080  0.9153359925656659
  0.3723499474568328  0.2132607055271549  0.9244449506236379
  0.7053047784310778  0.1999733323915365  0.9147505834916601

  0.00000000E+00  0.00000000E+00  0.00000000E+00
  0.00000000E+00  0.00000000E+00  0.00000000E+00
  0.00000000E+00  0.00000000E+00  0.00000000E+00
  0.00000000E+00  0.00000000E+00  0.00000000E+00
  0.00000000E+00  0.00000000E+00  0.00000000E+00
  0.00000000E+00  0.00000000E+00  0.00000000E+00
  0.00000000E+00  0.00000000E+00  0.00000000E+00
  0.00000000E+00  0.00000000E+00  0.00000000E+00
  0.00000000E+00  0.00000000E+00  0.00000000E+00
  0.00000000E+00  0.00000000E+00  0.00000000E+00
  0.00000000E+00  0.00000000E+00  0.00000000E+00
  0.00000000E+00  0.00000000E+00  0.00000000E+00
  0.00000000E+00  0.00000000E+00  0.00000000E+00
  0.00000000E+00  0.00000000E+00  0.00000000E+00
  0.00000000E+00  0.00000000E+00  0.00000000E+00
  0.00000000E+00  0.00000000E+00  0.00000000E+00
  0.00000000E+00  0.00000000E+00  0.00000000E+00
  0.00000000E+00  0.00000000E+00  0.00000000E+00
  0.00000000E+00  0.00000000E+00  0.00000000E+00
  0.00000000E+00  0.00000000E+00  0.00000000E+00
  0.00000000E+00  0.00000000E+00  0.00000000E+00
  0.00000000E+00  0.00000000E+00  0.00000000E+00
  0.00000000E+00  0.00000000E+00  0.00000000E+00
  0.00000000E+00  0.00000000E+00  0.00000000E+00
  0.00000000E+00  0.00000000E+00  0.00000000E+00
  0.00000000E+00  0.00000000E+00  0.00000000E+00
  0.00000000E+00  0.00000000E+00  0.00000000E+00
  0.00000000E+00  0.00000000E+00  0.00000000E+00
  0.00000000E+00  0.00000000E+00  0.00000000E+00
  0.00000000E+00  0.00000000E+00  0.00000000E+00
  0.00000000E+00  0.00000000E+00  0.00000000E+00
  0.00000000E+00  0.00000000E+00  0.00000000E+00
  0.00000000E+00  0.00000000E+00  0.00000000E+00
  0.00000000E+00  0.00000000E+00  0.00000000E+00
  0.00000000E+00  0.00000000E+00  0.00000000E+00
  0.00000000E+00  0.00000000E+00  0.00000000E+00
  0.00000000E+00  0.00000000E+00  0.00000000E+00
  0.00000000E+00  0.00000000E+00  0.00000000E+00
  0.00000000E+00  0.00000000E+00  0.00000000E+00
  0.00000000E+00  0.00000000E+00  0.00000000E+00
  0.00000000E+00  0.00000000E+00  0.00000000E+00
  0.00000000E+00  0.00000000E+00  0.00000000E+00
  0.00000000E+00  0.00000000E+00  0.00000000E+00
  0.00000000E+00  0.00000000E+00  0.00000000E+00
  0.00000000E+00  0.00000000E+00  0.00000000E+00
  0.00000000E+00  0.00000000E+00  0.00000000E+00
  0.00000000E+00  0.00000000E+00  0.00000000E+00
  0.00000000E+00  0.00000000E+00  0.00000000E+00
  0.00000000E+00  0.00000000E+00  0.00000000E+00
  0.00000000E+00  0.00000000E+00  0.00000000E+00
  0.00000000E+00  0.00000000E+00  0.00000000E+00
  0.00000000E+00  0.00000000E+00  0.00000000E+00
  0.00000000E+00  0.00000000E+00  0.00000000E+00
  0.00000000E+00  0.00000000E+00  0.00000000E+00
  0.00000000E+00  0.00000000E+00  0.00000000E+00
  0.00000000E+00  0.00000000E+00  0.00000000E+00
  0.00000000E+00  0.00000000E+00  0.00000000E+00
  0.00000000E+00  0.00000000E+00  0.00000000E+00
  0.00000000E+00  0.00000000E+00  0.00000000E+00
  0.00000000E+00  0.00000000E+00  0.00000000E+00
  0.00000000E+00  0.00000000E+00  0.00000000E+00
  0.00000000E+00  0.00000000E+00  0.00000000E+00
  0.00000000E+00  0.00000000E+00  0.00000000E+00
  0.00000000E+00  0.00000000E+00  0.00000000E+00
  0.00000000E+00  0.00000000E+00  0.00000000E+00
  0.00000000E+00  0.00000000E+00  0.00000000E+00
  0.00000000E+00  0.00000000E+00  0.00000000E+00
  0.00000000E+00  0.00000000E+00  0.00000000E+00
  0.00000000E+00  0.00000000E+00  0.00000000E+00
  0.00000000E+00  0.00000000E+00  0.00000000E+00
  0.00000000E+00  0.00000000E+00  0.00000000E+00
  0.00000000E+00  0.00000000E+00  0.00000000E+00
  0.00000000E+00  0.00000000E+00  0.00000000E+00
  0.00000000E+00  0.00000000E+00  0.00000000E+00
  0.00000000E+00  0.00000000E+00  0.00000000E+00
  0.00000000E+00  0.00000000E+00  0.00000000E+00
  0.00000000E+00  0.00000000E+00  0.00000000E+00
  0.00000000E+00  0.00000000E+00  0.00000000E+00
  0.00000000E+00  0.00000000E+00  0.00000000E+00
  0.00000000E+00  0.00000000E+00  0.00000000E+00
  0.00000000E+00  0.00000000E+00  0.00000000E+00
  0.00000000E+00  0.00000000E+00  0.00000000E+00
  0.00000000E+00  0.00000000E+00  0.00000000E+00
  0.00000000E+00  0.00000000E+00  0.00000000E+00
  0.00000000E+00  0.00000000E+00  0.00000000E+00
  0.00000000E+00  0.00000000E+00  0.00000000E+00
  0.00000000E+00  0.00000000E+00  0.00000000E+00
  0.00000000E+00  0.00000000E+00  0.00000000E+00
  0.00000000E+00  0.00000000E+00  0.00000000E+00
  0.00000000E+00  0.00000000E+00  0.00000000E+00
  0.00000000E+00  0.00000000E+00  0.00000000E+00
  0.00000000E+00  0.00000000E+00  0.00000000E+00
  0.00000000E+00  0.00000000E+00  0.00000000E+00
  0.00000000E+00  0.00000000E+00  0.00000000E+00
  0.00000000E+00  0.00000000E+00  0.00000000E+00
  0.00000000E+00  0.00000000E+00  0.00000000E+00
  0.00000000E+00  0.00000000E+00  0.00000000E+00
  0.00000000E+00  0.00000000E+00  0.00000000E+00
  0.00000000E+00  0.00000000E+00  0.00000000E+00
  0.00000000E+00  0.00000000E+00  0.00000000E+00
  0.00000000E+00  0.00000000E+00  0.00000000E+00
  0.00000000E+00  0.00000000E+00  0.00000000E+00
  0.00000000E+00  0.00000000E+00  0.00000000E+00
  0.00000000E+00  0.00000000E+00  0.00000000E+00
  0.00000000E+00  0.00000000E+00  0.00000000E+00
  0.00000000E+00  0.00000000E+00  0.00000000E+00
  0.00000000E+00  0.00000000E+00  0.00000000E+00
  0.00000000E+00  0.00000000E+00  0.00000000E+00
  0.00000000E+00  0.00000000E+00  0.00000000E+00
  0.00000000E+00  0.00000000E+00  0.00000000E+00
  0.00000000E+00  0.00000000E+00  0.00000000E+00
  0.00000000E+00  0.00000000E+00  0.00000000E+00
  0.00000000E+00  0.00000000E+00  0.00000000E+00
  0.00000000E+00  0.00000000E+00  0.00000000E+00
  0.00000000E+00  0.00000000E+00  0.00000000E+00
  0.00000000E+00  0.00000000E+00  0.00000000E+00
  0.00000000E+00  0.00000000E+00  0.00000000E+00
  0.00000000E+00  0.00000000E+00  0.00000000E+00
  0.00000000E+00  0.00000000E+00  0.00000000E+00
  0.00000000E+00  0.00000000E+00  0.00000000E+00
  0.00000000E+00  0.00000000E+00  0.00000000E+00
  0.00000000E+00  0.00000000E+00  0.00000000E+00
  0.00000000E+00  0.00000000E+00  0.00000000E+00
  0.00000000E+00  0.00000000E+00  0.00000000E+00
  0.00000000E+00  0.00000000E+00  0.00000000E+00
  0.00000000E+00  0.00000000E+00  0.00000000E+00
  0.00000000E+00  0.00000000E+00  0.00000000E+00
  0.00000000E+00  0.00000000E+00  0.00000000E+00
  0.00000000E+00  0.00000000E+00  0.00000000E+00
  0.00000000E+00  0.00000000E+00  0.00000000E+00
  0.00000000E+00  0.00000000E+00  0.00000000E+00
  0.00000000E+00  0.00000000E+00  0.00000000E+00
  0.00000000E+00  0.00000000E+00  0.00000000E+00
  0.00000000E+00  0.00000000E+00  0.00000000E+00
  0.00000000E+00  0.00000000E+00  0.00000000E+00
  0.00000000E+00  0.00000000E+00  0.00000000E+00
  0.00000000E+00  0.00000000E+00  0.00000000E+00
  0.00000000E+00  0.00000000E+00  0.00000000E+00
  0.00000000E+00  0.00000000E+00  0.00000000E+00
  0.00000000E+00  0.00000000E+00  0.00000000E+00
  0.00000000E+00  0.00000000E+00  0.00000000E+00
  0.00000000E+00  0.00000000E+00  0.00000000E+00
  0.00000000E+00  0.00000000E+00  0.00000000E+00
  0.00000000E+00  0.00000000E+00  0.00000000E+00
  0.00000000E+00  0.00000000E+00  0.00000000E+00
  0.00000000E+00  0.00000000E+00  0.00000000E+00
  0.00000000E+00  0.00000000E+00  0.00000000E+00
  0.00000000E+00  0.00000000E+00  0.00000000E+00
  0.00000000E+00  0.00000000E+00  0.00000000E+00
  0.00000000E+00  0.00000000E+00  0.00000000E+00
  0.00000000E+00  0.00000000E+00  0.00000000E+00
  0.00000000E+00  0.00000000E+00  0.00000000E+00
  0.00000000E+00  0.00000000E+00  0.00000000E+00
  0.00000000E+00  0.00000000E+00  0.00000000E+00
  0.00000000E+00  0.00000000E+00  0.00000000E+00
  0.00000000E+00  0.00000000E+00  0.00000000E+00
  0.00000000E+00  0.00000000E+00  0.00000000E+00
  0.00000000E+00  0.00000000E+00  0.00000000E+00
  0.00000000E+00  0.00000000E+00  0.00000000E+00
  0.00000000E+00  0.00000000E+00  0.00000000E+00
  0.00000000E+00  0.00000000E+00  0.00000000E+00
  0.00000000E+00  0.00000000E+00  0.00000000E+00
  0.00000000E+00  0.00000000E+00  0.00000000E+00
  0.00000000E+00  0.00000000E+00  0.00000000E+00
  0.00000000E+00  0.00000000E+00  0.00000000E+00
  0.00000000E+00  0.00000000E+00  0.00000000E+00
  0.00000000E+00  0.00000000E+00  0.00000000E+00
  0.00000000E+00  0.00000000E+00  0.00000000E+00
  0.00000000E+00  0.00000000E+00  0.00000000E+00
  0.00000000E+00  0.00000000E+00  0.00000000E+00
  0.00000000E+00  0.00000000E+00  0.00000000E+00
  0.00000000E+00  0.00000000E+00  0.00000000E+00
  0.00000000E+00  0.00000000E+00  0.00000000E+00
  0.00000000E+00  0.00000000E+00  0.00000000E+00
  0.00000000E+00  0.00000000E+00  0.00000000E+00
  0.00000000E+00  0.00000000E+00  0.00000000E+00
  0.00000000E+00  0.00000000E+00  0.00000000E+00
  0.00000000E+00  0.00000000E+00  0.00000000E+00
  0.00000000E+00  0.00000000E+00  0.00000000E+00
  0.00000000E+00  0.00000000E+00  0.00000000E+00
  0.00000000E+00  0.00000000E+00  0.00000000E+00
  0.00000000E+00  0.00000000E+00  0.00000000E+00
  0.00000000E+00  0.00000000E+00  0.00000000E+00
  0.00000000E+00  0.00000000E+00  0.00000000E+00
  0.00000000E+00  0.00000000E+00  0.00000000E+00
  0.00000000E+00  0.00000000E+00  0.00000000E+00
  0.00000000E+00  0.00000000E+00  0.00000000E+00
  0.00000000E+00  0.00000000E+00  0.00000000E+00
  0.00000000E+00  0.00000000E+00  0.00000000E+00
  0.00000000E+00  0.00000000E+00  0.00000000E+00
  0.00000000E+00  0.00000000E+00  0.00000000E+00
  0.00000000E+00  0.00000000E+00  0.00000000E+00
  0.00000000E+00  0.00000000E+00  0.00000000E+00
  0.00000000E+00  0.00000000E+00  0.00000000E+00
  0.00000000E+00  0.00000000E+00  0.00000000E+00
  0.00000000E+00  0.00000000E+00  0.00000000E+00
  0.00000000E+00  0.00000000E+00  0.00000000E+00
  0.00000000E+00  0.00000000E+00  0.00000000E+00
  0.00000000E+00  0.00000000E+00  0.00000000E+00
  0.00000000E+00  0.00000000E+00  0.00000000E+00
  0.00000000E+00  0.00000000E+00  0.00000000E+00
  0.00000000E+00  0.00000000E+00  0.00000000E+00
  0.00000000E+00  0.00000000E+00  0.00000000E+00
  0.00000000E+00  0.00000000E+00  0.00000000E+00
  0.00000000E+00  0.00000000E+00  0.00000000E+00
  0.00000000E+00  0.00000000E+00  0.00000000E+00
  0.00000000E+00  0.00000000E+00  0.00000000E+00
  0.00000000E+00  0.00000000E+00  0.00000000E+00
  0.00000000E+00  0.00000000E+00  0.00000000E+00
  0.00000000E+00  0.00000000E+00  0.00000000E+00
  0.00000000E+00  0.00000000E+00  0.00000000E+00
  0.00000000E+00  0.00000000E+00  0.00000000E+00
  0.00000000E+00  0.00000000E+00  0.00000000E+00
  0.00000000E+00  0.00000000E+00  0.00000000E+00
  0.00000000E+00  0.00000000E+00  0.00000000E+00
  0.00000000E+00  0.00000000E+00  0.00000000E+00
