In42 Ga12 Cu24 Ag30 Se108               
   1.0000000000000000     
    16.3926404467014066   -0.0009261476431361   -7.4177258220842752
    -3.3232527850633105   16.0494069818782208   -7.3706234236924573
     0.0326770362070668   -0.0004178276518531   21.9193094793191783
   In   Ga   Cu   Ag   Se
    42    12    24    30   108
Direct
  0.1697024840764456  0.4978864729995749  0.9976279992161068
  0.8265680212992237  0.5009929437353691  0.9961139486380333
  0.1719584808103320  0.8277500700125202  0.9985642701115651
  0.4990584689111230  0.8306532635949253  0.9992324015869443
  0.8241587650429381  0.8269637661730656  0.9953136505478071
  0.1698197002257587  0.1687851950895052  0.9989192056687131
  0.1636898702250491  0.4965840518342617  0.3315722529830865
  0.8344297619005943  0.5013774471989052  0.3333030567015243
  0.1712979859537782  0.8344762770411975  0.3341161957344738
  0.1695328410586114  0.1681428057748775  0.3342164973708677
  0.5037198093399127  0.1637400192867631  0.3297637618684774
  0.8264025105530877  0.1629270246868231  0.3316986074841708
  0.1681953063425965  0.4963006665325906  0.6669470586136583
  0.5030777997143048  0.5019396150480731  0.6696838336618214
  0.8333101758740682  0.4968999301804047  0.6711423706817570
  0.1694043255337903  0.8315654167120456  0.6696575967848162
  0.8293831929063629  0.8318145785742459  0.6677066579352200
  0.1655483226872221  0.1720737539176511  0.6658934603966529
  0.8353083368192316  0.1754555892373872  0.6705854356370509
  0.2564037734508560  0.4142573534323972  0.1666213334677593
  0.5787975389990194  0.4191459617849631  0.1632984578503169
  0.9099566369516054  0.4111011585577486  0.1612414982429158
  0.2592260804018807  0.7516113336634689  0.1675257097406089
  0.5795932135212496  0.7475475310214676  0.1664647628272036
  0.9097643044434633  0.7500510314173425  0.1680045140566691
  0.2537649946135474  0.0829300245853659  0.1658125174787770
  0.9152022956911452  0.0833614156798888  0.1617546414681144
  0.2498027864538912  0.4173370706036650  0.5028931172089912
  0.5872090436391204  0.4193184052574992  0.5010892371568119
  0.9171215502378658  0.4133449656710440  0.5008132702186927
  0.2545080147097920  0.7444985193397997  0.5031399101654657
  0.9180617806433986  0.7503524360109566  0.5006910827277622
  0.2546059250511092  0.0881314420067483  0.5019280884891799
  0.5832679787841428  0.0880093837533380  0.5000028606281859
  0.9104547592513725  0.0847200450361854  0.4983566873150949
  0.2518095922236796  0.4180749537677642  0.8355936564250044
  0.5794855486882753  0.4173047633828730  0.8326150921102098
  0.2482676915815745  0.7449495114005984  0.8333201627166744
  0.9165107897275533  0.7482326390692862  0.8336608535404437
  0.2500993490486820  0.0856346696277015  0.8360716179313741
  0.5863045461645626  0.0881543388128279  0.8363369972153691
  0.9168283533291017  0.0839737163551320  0.8348383135065376
  0.5007098853575798  0.5024854652455559  0.0014648725388327
  0.4990287172190904  0.1715083677200937  0.0020173604852332
  0.8299813455372202  0.1659968575799766  0.9977864575915802
  0.5000282344827838  0.5025910136434746  0.3319742435878226
  0.5025091339287329  0.8359918987154842  0.3343744370247919
  0.8257804072591597  0.8323272184159336  0.3317169707538170
  0.5063096375269112  0.8283755561749260  0.6693842822813210
  0.5039946025286497  0.1754494111846583  0.6687673047685507
  0.5785989420100748  0.0813144226400198  0.1636515514645751
  0.5835458668400548  0.7495412480142178  0.5000428452292240
  0.9185140379844938  0.4191588969222977  0.8337803698023549
  0.5863924928070148  0.7467828316072840  0.8307445678759109
  0.3381651764693672  0.3393275214532707  0.0027931093419582
  0.6655175846225561  0.3373972719919323  0.0017247446961974
  0.3360066399666053  0.6649154105227666  0.0019763343945627
  0.6619282472389969  0.6601236100227368  0.9965645464983339
  0.3393195147084285  0.9965213802541797  0.3310462930458939
  0.6610831202999563  0.0012493146439567  0.3298882169928916
  0.9994546813990013  0.3351896751104135  0.6695308705008998
  0.3324437165670631  0.3327903420185336  0.6647592172351295
  0.6719899546092307  0.3365502338245605  0.6704311048760587
  0.3362579533916517  0.6664069431533051  0.6670443950208238
  0.6666527188197691  0.6724468685512832  0.6732268344156651
  0.4164461888164794  0.5819034879889458  0.1640260557287334
  0.7417434966921590  0.5820632866177888  0.1598604690370777
  0.4226293690710676  0.9136746611183142  0.1697385380032443
  0.0786946509429995  0.2459987397980399  0.1598599086041474
  0.4210607684574725  0.2538472911684480  0.1636810195982221
  0.0885534781375696  0.5846782556126797  0.5044615711960958
  0.0822724807424535  0.2524319301921736  0.5053724629347585
  0.7540513204787302  0.2499682404105670  0.5043714123610101
  0.0856111028004349  0.5788235119193459  0.8333638972842934
  0.7468940736469420  0.5802171197680011  0.8304067199717409
  0.0832462029805825  0.9154753942645755  0.8357403426798626
  0.7467725643586860  0.9139484181463899  0.8327772765258032
  0.0835659595797154  0.2579504339401808  0.8333652464817405
  0.9981325503990561  0.3296513437329054  0.9988765276866545
  0.9982373123423045  0.6601898422465311  0.9973486905635554
  0.9946011058790560  0.0015312910016121  0.9950961565361354
  0.3396554166015520  0.0081642628371625  0.0068547169703024
  0.6560301480404718  0.9971712281811733  0.9926921434718423
  0.0012529791491644  0.3286537343376636  0.3340268694530337
  0.3326113161860889  0.3310295327827646  0.3246190400633608
  0.6574758584157507  0.3289239443044778  0.3288339724152252
  0.9909376382005846  0.6710547117092958  0.3326936022272875
  0.3476489436880073  0.6702454213695574  0.3376343027826607
  0.6607890765816009  0.6655221393193926  0.3311072234147971
  0.0043112984438807  0.0067717350157395  0.3374154971031800
  0.0014124490786287  0.6634474664637793  0.6676344707007402
  0.0043769240432781  0.0046457850753114  0.6758961557470968
  0.3406064004418425  0.0060761672219130  0.6663210126991288
  0.6592514191796539  0.9929318641401821  0.6658744513921206
  0.0875095497851248  0.5833014272651695  0.1696220659792758
  0.0879696114148416  0.9190590371111469  0.1689737857235940
  0.7441158798815266  0.9130300610506339  0.1681720881133941
  0.7394005815073044  0.2449976020686435  0.1580109458368213
  0.4274665311186752  0.5861159808916199  0.5053014857735576
  0.7435053284038489  0.5793382251775938  0.4994764322110186
  0.0754574104950692  0.9151767077606081  0.4935216129961759
  0.4175145994763554  0.9195205118290701  0.5049463062531458
  0.7451892334023142  0.9189607615898439  0.4953449361851128
  0.4220666945713916  0.2516242531294282  0.5038777150962801
  0.4202028246599596  0.5879825228810915  0.8379743320832276
  0.4189384747176277  0.9050286943322163  0.8264599166904318
  0.4170356537177753  0.2533501766429680  0.8390970368065069
  0.7485795970546505  0.2518621693396099  0.8347198565968270
  0.1277911539853562  0.4565047589286380  0.0828201368395796
  0.4510137817979043  0.4645169437359726  0.0784723730865835
  0.7794342729895689  0.4593208506042217  0.0812810210713621
  0.1263383601984103  0.7878454679473421  0.0825759536421060
  0.4482805984487399  0.7894664755630458  0.0821463308199668
  0.7768017947635357  0.7817440428108142  0.0770829671777165
  0.1237081563739935  0.1303815350714785  0.0851006725694816
  0.4665371843100630  0.1365759591371045  0.0892321099381448
  0.7880459750803652  0.1228740231355516  0.0734871488558966
  0.1216576712684940  0.4643899097653303  0.4224368986023137
  0.4609982214574160  0.4592884583563119  0.4100946173614375
  0.7885586443177317  0.4544474267297147  0.4147191641957093
  0.1290145489306198  0.7900107639838652  0.4180080770638313
  0.4719166542272504  0.7995387836186296  0.4216931360103970
  0.7912874863642188  0.7914793983289670  0.4124134320925634
  0.1253428840043398  0.1380639775576782  0.4251541190801902
  0.4506809628482387  0.1198796589299462  0.4092044981272167
  0.7754306736937622  0.1240911349976912  0.4156150369086831
  0.1168556086052632  0.4568937219207569  0.7503294071902360
  0.4477706354881548  0.4525902742183021  0.7448562868016566
  0.7896625073214025  0.4560358842891503  0.7577715130073770
  0.1223680304988903  0.7979854540899609  0.7570665708901814
  0.4628731847503431  0.7779719917277532  0.7433057910599246
  0.7833278964608752  0.7928787431364057  0.7536003219651661
  0.1248857960453620  0.1386168127097918  0.7569468959270012
  0.4658787227530823  0.1354423032788503  0.7488342966988739
  0.7882973080570537  0.1226124220505653  0.7477088827318568
  0.3027239762785570  0.6228977698928446  0.0824447057418922
  0.6243391162789820  0.6204868257918505  0.0775050835322020
  0.9565824503295701  0.6246268766703906  0.0860035415325200
  0.3038146652782174  0.9527733494841542  0.0894958264403272
  0.6207372938177897  0.9640554437253712  0.0859844469430087
  0.9551787892116295  0.9515696682065666  0.0788892462470869
  0.3050206330959142  0.2915076069853910  0.0812115627982806
  0.6169780257447712  0.2912581517370327  0.0725609881374041
  0.9556068433059721  0.2795703928210784  0.0796632962017085
  0.2952068349943175  0.6201910431135076  0.4141213065381280
  0.6164386221403433  0.6251264780727865  0.4168606946379825
  0.9691615870280401  0.6224662021193197  0.4246843902722262
  0.2979829604004038  0.9637866164872690  0.4124972126428403
  0.6195247363166416  0.9586130420770260  0.4064919394411390
  0.9447032416921317  0.9522379561243071  0.4081040799462698
  0.2967647782903953  0.2957892336696730  0.4171708036810813
  0.6356746599425307  0.2886425104489518  0.4242945458553962
  0.9624969100093281  0.2836732362213752  0.4201166720550802
  0.2951436213214436  0.6258495550904897  0.7447091486662529
  0.6336837372846134  0.6296669152276593  0.7542994061812180
  0.9669250026022880  0.6196073061445091  0.7562243050455848
  0.2945987055925272  0.9611323299022771  0.7497103599393853
  0.6247361265359217  0.9500275266560436  0.7544650509170836
  0.9638414761374960  0.9533539768235926  0.7573405130317497
  0.2967611982591123  0.2967713723702161  0.7465914047501272
  0.6240967496052221  0.2933332269100362  0.7435948099355301
  0.9668626362580568  0.3022602328561845  0.7563620845091918
  0.1966944683681078  0.3647769834366130  0.2397578302515200
  0.5334981176530746  0.3787142816213631  0.2489869602873327
  0.8708953756358611  0.3690160935414895  0.2479712256783415
  0.2161261552058562  0.7081701930329700  0.2513739892350060
  0.5285470639282650  0.7073664062863187  0.2490279114373735
  0.8566905689371325  0.7067013196763980  0.2478303927032357
  0.2207599219049783  0.0404014439729181  0.2564538538960193
  0.5426312006790184  0.0318114029202476  0.2416119958574754
  0.8728832143101073  0.0400686462844675  0.2465571763364238
  0.2082123672723668  0.3628520322113502  0.5834589759974733
  0.5533957474497697  0.3756952581573501  0.5905325064110230
  0.8753345212669430  0.3655440059081485  0.5855910006206386
  0.2113480749751702  0.6979175771463417  0.5870924291200907
  0.5537200718401110  0.7149349179491793  0.5895812267372094
  0.8728007522096846  0.7057681775658651  0.5830411404743998
  0.2057377433348009  0.0412866182883747  0.5812126691526416
  0.5408228131320385  0.0539316833610073  0.5896857351465385
  0.8750633210501988  0.0440806944718730  0.5872443499379685
  0.2121928790744789  0.3644413169760696  0.9172471144043257
  0.5465259142277290  0.3820269149724211  0.9270491833206833
  0.8780447870626631  0.3792993027991827  0.9128874123609734
  0.2104672951224273  0.6909981907239739  0.9158963726130622
  0.5533393322720315  0.7096678170637531  0.9167317962522574
  0.8661439149868215  0.6973821149474873  0.9107837188218397
  0.2019765959043482  0.0321875715200406  0.9130943548069794
  0.5307130592929923  0.0503668768380479  0.9170508069035108
  0.8591933825075486  0.0404153529249740  0.9126978962845484
  0.0355042269126074  0.5405590569699115  0.2488195265421353
  0.3853329900328930  0.5420879199303599  0.2475738190609675
  0.7092781321067818  0.5450892892847818  0.2437550581540933
  0.0401385276741806  0.8746759240061124  0.2508172814077767
  0.3859681240366726  0.8829272850932810  0.2554455959963988
  0.7057034190594393  0.8789196115270670  0.2593999159100946
  0.0456523515082239  0.2090341710499715  0.2426256920503391
  0.3826926211637840  0.2099952164729331  0.2407409343002982
  0.6973398936824182  0.2000898812751615  0.2421560088709427
  0.0452896546862718  0.5410065831713382  0.5788296886175530
  0.3752161710901873  0.5483240367461164  0.5882278929122791
  0.7086904042206754  0.5532938643276992  0.5959299400289666
  0.0441429330691534  0.8777691687296993  0.5864902294998373
  0.3863194787178017  0.8695423572338825  0.5917958005550403
  0.7017149736908408  0.8687414416431665  0.5765855835689280
  0.0366272606375020  0.2188703402983094  0.5835968467905701
  0.3815081584000879  0.2173968757518949  0.5942377530079739
  0.7091133135003105  0.2215809676599179  0.5854123894439880
  0.0404127432063106  0.5366959748095894  0.9077986704994956
  0.3808136603486432  0.5479310095253282  0.9263552705299674
  0.7030331306392057  0.5504717219383437  0.9121731732336329
  0.0463630357385441  0.8756518068119021  0.9146728372588839
  0.3733260965154557  0.8743810396111300  0.9156761699615501
  0.7004490129298304  0.8712700361524384  0.9065400859245543
  0.0450096693314350  0.2111134352639610  0.9094927289533743
  0.3777051648330740  0.2157798041760159  0.9283842740662323
  0.7129063178320294  0.2190982746541223  0.9283938779565233

  0.00000000E+00  0.00000000E+00  0.00000000E+00
  0.00000000E+00  0.00000000E+00  0.00000000E+00
  0.00000000E+00  0.00000000E+00  0.00000000E+00
  0.00000000E+00  0.00000000E+00  0.00000000E+00
  0.00000000E+00  0.00000000E+00  0.00000000E+00
  0.00000000E+00  0.00000000E+00  0.00000000E+00
  0.00000000E+00  0.00000000E+00  0.00000000E+00
  0.00000000E+00  0.00000000E+00  0.00000000E+00
  0.00000000E+00  0.00000000E+00  0.00000000E+00
  0.00000000E+00  0.00000000E+00  0.00000000E+00
  0.00000000E+00  0.00000000E+00  0.00000000E+00
  0.00000000E+00  0.00000000E+00  0.00000000E+00
  0.00000000E+00  0.00000000E+00  0.00000000E+00
  0.00000000E+00  0.00000000E+00  0.00000000E+00
  0.00000000E+00  0.00000000E+00  0.00000000E+00
  0.00000000E+00  0.00000000E+00  0.00000000E+00
  0.00000000E+00  0.00000000E+00  0.00000000E+00
  0.00000000E+00  0.00000000E+00  0.00000000E+00
  0.00000000E+00  0.00000000E+00  0.00000000E+00
  0.00000000E+00  0.00000000E+00  0.00000000E+00
  0.00000000E+00  0.00000000E+00  0.00000000E+00
  0.00000000E+00  0.00000000E+00  0.00000000E+00
  0.00000000E+00  0.00000000E+00  0.00000000E+00
  0.00000000E+00  0.00000000E+00  0.00000000E+00
  0.00000000E+00  0.00000000E+00  0.00000000E+00
  0.00000000E+00  0.00000000E+00  0.00000000E+00
  0.00000000E+00  0.00000000E+00  0.00000000E+00
  0.00000000E+00  0.00000000E+00  0.00000000E+00
  0.00000000E+00  0.00000000E+00  0.00000000E+00
  0.00000000E+00  0.00000000E+00  0.00000000E+00
  0.00000000E+00  0.00000000E+00  0.00000000E+00
  0.00000000E+00  0.00000000E+00  0.00000000E+00
  0.00000000E+00  0.00000000E+00  0.00000000E+00
  0.00000000E+00  0.00000000E+00  0.00000000E+00
  0.00000000E+00  0.00000000E+00  0.00000000E+00
  0.00000000E+00  0.00000000E+00  0.00000000E+00
  0.00000000E+00  0.00000000E+00  0.00000000E+00
  0.00000000E+00  0.00000000E+00  0.00000000E+00
  0.00000000E+00  0.00000000E+00  0.00000000E+00
  0.00000000E+00  0.00000000E+00  0.00000000E+00
  0.00000000E+00  0.00000000E+00  0.00000000E+00
  0.00000000E+00  0.00000000E+00  0.00000000E+00
  0.00000000E+00  0.00000000E+00  0.00000000E+00
  0.00000000E+00  0.00000000E+00  0.00000000E+00
  0.00000000E+00  0.00000000E+00  0.00000000E+00
  0.00000000E+00  0.00000000E+00  0.00000000E+00
  0.00000000E+00  0.00000000E+00  0.00000000E+00
  0.00000000E+00  0.00000000E+00  0.00000000E+00
  0.00000000E+00  0.00000000E+00  0.00000000E+00
  0.00000000E+00  0.00000000E+00  0.00000000E+00
  0.00000000E+00  0.00000000E+00  0.00000000E+00
  0.00000000E+00  0.00000000E+00  0.00000000E+00
  0.00000000E+00  0.00000000E+00  0.00000000E+00
  0.00000000E+00  0.00000000E+00  0.00000000E+00
  0.00000000E+00  0.00000000E+00  0.00000000E+00
  0.00000000E+00  0.00000000E+00  0.00000000E+00
  0.00000000E+00  0.00000000E+00  0.00000000E+00
  0.00000000E+00  0.00000000E+00  0.00000000E+00
  0.00000000E+00  0.00000000E+00  0.00000000E+00
  0.00000000E+00  0.00000000E+00  0.00000000E+00
  0.00000000E+00  0.00000000E+00  0.00000000E+00
  0.00000000E+00  0.00000000E+00  0.00000000E+00
  0.00000000E+00  0.00000000E+00  0.00000000E+00
  0.00000000E+00  0.00000000E+00  0.00000000E+00
  0.00000000E+00  0.00000000E+00  0.00000000E+00
  0.00000000E+00  0.00000000E+00  0.00000000E+00
  0.00000000E+00  0.00000000E+00  0.00000000E+00
  0.00000000E+00  0.00000000E+00  0.00000000E+00
  0.00000000E+00  0.00000000E+00  0.00000000E+00
  0.00000000E+00  0.00000000E+00  0.00000000E+00
  0.00000000E+00  0.00000000E+00  0.00000000E+00
  0.00000000E+00  0.00000000E+00  0.00000000E+00
  0.00000000E+00  0.00000000E+00  0.00000000E+00
  0.00000000E+00  0.00000000E+00  0.00000000E+00
  0.00000000E+00  0.00000000E+00  0.00000000E+00
  0.00000000E+00  0.00000000E+00  0.00000000E+00
  0.00000000E+00  0.00000000E+00  0.00000000E+00
  0.00000000E+00  0.00000000E+00  0.00000000E+00
  0.00000000E+00  0.00000000E+00  0.00000000E+00
  0.00000000E+00  0.00000000E+00  0.00000000E+00
  0.00000000E+00  0.00000000E+00  0.00000000E+00
  0.00000000E+00  0.00000000E+00  0.00000000E+00
  0.00000000E+00  0.00000000E+00  0.00000000E+00
  0.00000000E+00  0.00000000E+00  0.00000000E+00
  0.00000000E+00  0.00000000E+00  0.00000000E+00
  0.00000000E+00  0.00000000E+00  0.00000000E+00
  0.00000000E+00  0.00000000E+00  0.00000000E+00
  0.00000000E+00  0.00000000E+00  0.00000000E+00
  0.00000000E+00  0.00000000E+00  0.00000000E+00
  0.00000000E+00  0.00000000E+00  0.00000000E+00
  0.00000000E+00  0.00000000E+00  0.00000000E+00
  0.00000000E+00  0.00000000E+00  0.00000000E+00
  0.00000000E+00  0.00000000E+00  0.00000000E+00
  0.00000000E+00  0.00000000E+00  0.00000000E+00
  0.00000000E+00  0.00000000E+00  0.00000000E+00
  0.00000000E+00  0.00000000E+00  0.00000000E+00
  0.00000000E+00  0.00000000E+00  0.00000000E+00
  0.00000000E+00  0.00000000E+00  0.00000000E+00
  0.00000000E+00  0.00000000E+00  0.00000000E+00
  0.00000000E+00  0.00000000E+00  0.00000000E+00
  0.00000000E+00  0.00000000E+00  0.00000000E+00
  0.00000000E+00  0.00000000E+00  0.00000000E+00
  0.00000000E+00  0.00000000E+00  0.00000000E+00
  0.00000000E+00  0.00000000E+00  0.00000000E+00
  0.00000000E+00  0.00000000E+00  0.00000000E+00
  0.00000000E+00  0.00000000E+00  0.00000000E+00
  0.00000000E+00  0.00000000E+00  0.00000000E+00
  0.00000000E+00  0.00000000E+00  0.00000000E+00
  0.00000000E+00  0.00000000E+00  0.00000000E+00
  0.00000000E+00  0.00000000E+00  0.00000000E+00
  0.00000000E+00  0.00000000E+00  0.00000000E+00
  0.00000000E+00  0.00000000E+00  0.00000000E+00
  0.00000000E+00  0.00000000E+00  0.00000000E+00
  0.00000000E+00  0.00000000E+00  0.00000000E+00
  0.00000000E+00  0.00000000E+00  0.00000000E+00
  0.00000000E+00  0.00000000E+00  0.00000000E+00
  0.00000000E+00  0.00000000E+00  0.00000000E+00
  0.00000000E+00  0.00000000E+00  0.00000000E+00
  0.00000000E+00  0.00000000E+00  0.00000000E+00
  0.00000000E+00  0.00000000E+00  0.00000000E+00
  0.00000000E+00  0.00000000E+00  0.00000000E+00
  0.00000000E+00  0.00000000E+00  0.00000000E+00
  0.00000000E+00  0.00000000E+00  0.00000000E+00
  0.00000000E+00  0.00000000E+00  0.00000000E+00
  0.00000000E+00  0.00000000E+00  0.00000000E+00
  0.00000000E+00  0.00000000E+00  0.00000000E+00
  0.00000000E+00  0.00000000E+00  0.00000000E+00
  0.00000000E+00  0.00000000E+00  0.00000000E+00
  0.00000000E+00  0.00000000E+00  0.00000000E+00
  0.00000000E+00  0.00000000E+00  0.00000000E+00
  0.00000000E+00  0.00000000E+00  0.00000000E+00
  0.00000000E+00  0.00000000E+00  0.00000000E+00
  0.00000000E+00  0.00000000E+00  0.00000000E+00
  0.00000000E+00  0.00000000E+00  0.00000000E+00
  0.00000000E+00  0.00000000E+00  0.00000000E+00
  0.00000000E+00  0.00000000E+00  0.00000000E+00
  0.00000000E+00  0.00000000E+00  0.00000000E+00
  0.00000000E+00  0.00000000E+00  0.00000000E+00
  0.00000000E+00  0.00000000E+00  0.00000000E+00
  0.00000000E+00  0.00000000E+00  0.00000000E+00
  0.00000000E+00  0.00000000E+00  0.00000000E+00
  0.00000000E+00  0.00000000E+00  0.00000000E+00
  0.00000000E+00  0.00000000E+00  0.00000000E+00
  0.00000000E+00  0.00000000E+00  0.00000000E+00
  0.00000000E+00  0.00000000E+00  0.00000000E+00
  0.00000000E+00  0.00000000E+00  0.00000000E+00
  0.00000000E+00  0.00000000E+00  0.00000000E+00
  0.00000000E+00  0.00000000E+00  0.00000000E+00
  0.00000000E+00  0.00000000E+00  0.00000000E+00
  0.00000000E+00  0.00000000E+00  0.00000000E+00
  0.00000000E+00  0.00000000E+00  0.00000000E+00
  0.00000000E+00  0.00000000E+00  0.00000000E+00
  0.00000000E+00  0.00000000E+00  0.00000000E+00
  0.00000000E+00  0.00000000E+00  0.00000000E+00
  0.00000000E+00  0.00000000E+00  0.00000000E+00
  0.00000000E+00  0.00000000E+00  0.00000000E+00
  0.00000000E+00  0.00000000E+00  0.00000000E+00
  0.00000000E+00  0.00000000E+00  0.00000000E+00
  0.00000000E+00  0.00000000E+00  0.00000000E+00
  0.00000000E+00  0.00000000E+00  0.00000000E+00
  0.00000000E+00  0.00000000E+00  0.00000000E+00
  0.00000000E+00  0.00000000E+00  0.00000000E+00
  0.00000000E+00  0.00000000E+00  0.00000000E+00
  0.00000000E+00  0.00000000E+00  0.00000000E+00
  0.00000000E+00  0.00000000E+00  0.00000000E+00
  0.00000000E+00  0.00000000E+00  0.00000000E+00
  0.00000000E+00  0.00000000E+00  0.00000000E+00
  0.00000000E+00  0.00000000E+00  0.00000000E+00
  0.00000000E+00  0.00000000E+00  0.00000000E+00
  0.00000000E+00  0.00000000E+00  0.00000000E+00
  0.00000000E+00  0.00000000E+00  0.00000000E+00
  0.00000000E+00  0.00000000E+00  0.00000000E+00
  0.00000000E+00  0.00000000E+00  0.00000000E+00
  0.00000000E+00  0.00000000E+00  0.00000000E+00
  0.00000000E+00  0.00000000E+00  0.00000000E+00
  0.00000000E+00  0.00000000E+00  0.00000000E+00
  0.00000000E+00  0.00000000E+00  0.00000000E+00
  0.00000000E+00  0.00000000E+00  0.00000000E+00
  0.00000000E+00  0.00000000E+00  0.00000000E+00
  0.00000000E+00  0.00000000E+00  0.00000000E+00
  0.00000000E+00  0.00000000E+00  0.00000000E+00
  0.00000000E+00  0.00000000E+00  0.00000000E+00
  0.00000000E+00  0.00000000E+00  0.00000000E+00
  0.00000000E+00  0.00000000E+00  0.00000000E+00
  0.00000000E+00  0.00000000E+00  0.00000000E+00
  0.00000000E+00  0.00000000E+00  0.00000000E+00
  0.00000000E+00  0.00000000E+00  0.00000000E+00
  0.00000000E+00  0.00000000E+00  0.00000000E+00
  0.00000000E+00  0.00000000E+00  0.00000000E+00
  0.00000000E+00  0.00000000E+00  0.00000000E+00
  0.00000000E+00  0.00000000E+00  0.00000000E+00
  0.00000000E+00  0.00000000E+00  0.00000000E+00
  0.00000000E+00  0.00000000E+00  0.00000000E+00
  0.00000000E+00  0.00000000E+00  0.00000000E+00
  0.00000000E+00  0.00000000E+00  0.00000000E+00
  0.00000000E+00  0.00000000E+00  0.00000000E+00
  0.00000000E+00  0.00000000E+00  0.00000000E+00
  0.00000000E+00  0.00000000E+00  0.00000000E+00
  0.00000000E+00  0.00000000E+00  0.00000000E+00
  0.00000000E+00  0.00000000E+00  0.00000000E+00
  0.00000000E+00  0.00000000E+00  0.00000000E+00
  0.00000000E+00  0.00000000E+00  0.00000000E+00
  0.00000000E+00  0.00000000E+00  0.00000000E+00
  0.00000000E+00  0.00000000E+00  0.00000000E+00
  0.00000000E+00  0.00000000E+00  0.00000000E+00
  0.00000000E+00  0.00000000E+00  0.00000000E+00
  0.00000000E+00  0.00000000E+00  0.00000000E+00
  0.00000000E+00  0.00000000E+00  0.00000000E+00
  0.00000000E+00  0.00000000E+00  0.00000000E+00
  0.00000000E+00  0.00000000E+00  0.00000000E+00
  0.00000000E+00  0.00000000E+00  0.00000000E+00
  0.00000000E+00  0.00000000E+00  0.00000000E+00
  0.00000000E+00  0.00000000E+00  0.00000000E+00
  0.00000000E+00  0.00000000E+00  0.00000000E+00
  0.00000000E+00  0.00000000E+00  0.00000000E+00
  0.00000000E+00  0.00000000E+00  0.00000000E+00
