In36 Ga18 Ag54 Se108                    
   1.0000000000000000     
    16.7407235865985378    0.0191915090024362   -7.6877349687192664
    -3.5482886993164144   16.3689339043008317   -7.6861556553684771
    -0.0272303824458329   -0.0451078236210561   21.9978907922626767
   In   Ga   Ag   Se
    36    18    54   108
Direct
  0.1678012254091641  0.5026283549573520  0.0015312705219017
  0.5050666919665403  0.5036091102067317  0.0032920377356689
  0.8281680123361426  0.5021152286880337  0.9995830300377335
  0.1668084075598628  0.8336649836003787  0.0002577832239936
  0.1659863317527126  0.1637521775293465  0.9997422886031799
  0.5029991414037056  0.1679272169411590  0.9994874885355074
  0.8305731770460412  0.1620237026511191  0.0002192504872056
  0.1651977267422282  0.5003142217192789  0.3340250659244077
  0.5056670600227662  0.4989643369750070  0.3346084797261426
  0.8319567278789748  0.5013062938461772  0.3367368060477673
  0.1618258694481085  0.8305845984067801  0.3310703292857724
  0.8337070929935919  0.8305963990059126  0.3310116145374806
  0.5008610435770890  0.1706141480516550  0.3352234285207345
  0.1632463260328620  0.4976476528510076  0.6642936965768627
  0.5025057972282738  0.4991060079623537  0.6661042699660555
  0.1665112722175550  0.1662956619281459  0.6663918058344009
  0.5025428551585307  0.1684406941882841  0.6702707867086914
  0.8329021589562089  0.1663019769496188  0.6662377930346395
  0.2503060240658925  0.4170389967745507  0.1679177649896388
  0.9142803517446580  0.4169198134002414  0.1669065050394281
  0.2550569369659073  0.7512202531650871  0.1699155113845023
  0.2493837986375098  0.0848887565902672  0.1690304744787312
  0.5858150779008895  0.0798503136880413  0.1664079149229778
  0.2464186495413188  0.4130973695560058  0.4975574272314276
  0.2526016092235039  0.7509881065636606  0.5036379923855492
  0.5863162642512663  0.7540488779108969  0.5016377927096940
  0.2489997570898410  0.0835153306357554  0.4977023469327264
  0.5834389460722988  0.0809877183020760  0.4985134210384246
  0.9159498784420563  0.0844300301329426  0.4972694465713658
  0.2516137152005271  0.4172183412892423  0.8347852283877941
  0.9157099248917788  0.4190937734333318  0.8317453216197492
  0.2536811842210014  0.7498195602706517  0.8324600942042224
  0.5854299545150070  0.7532270842560393  0.8349106426897634
  0.9116354069478732  0.7499531883343593  0.8304650252222885
  0.2482218686551221  0.0780655934122834  0.8302866454547271
  0.9132126756762560  0.0795950880465455  0.8314063537873935
  0.5033381336200264  0.8330329377609118  0.0010598005794051
  0.8338440063152532  0.8356501904478790  0.0040784838324157
  0.5037398263867914  0.8346376769641140  0.3313235769712293
  0.1618229975333989  0.1627538508384490  0.3300829243128121
  0.8323336111330946  0.1693875756934844  0.3334786286138183
  0.8303287452972228  0.4992212068241955  0.6627882390818058
  0.1629687143220480  0.8287538291731096  0.6643684591246597
  0.5003284230662999  0.8357449412147204  0.6678065322408244
  0.8341711802855798  0.8336390141266108  0.6644795388516300
  0.5864414977584218  0.4166690512772959  0.1673905967644131
  0.5844065359992641  0.7550381828112407  0.1667829426542440
  0.9142131103296336  0.7508373204673617  0.1638263843169767
  0.9138420917495864  0.0828142817836053  0.1694634446351344
  0.5864950110557530  0.4167374140292281  0.5017193110526676
  0.9128253006916722  0.4156770315715548  0.5002190583815960
  0.9171524595372276  0.7517623888793921  0.5029677854571730
  0.5842683419776762  0.4194783909889850  0.8333042555330579
  0.5811525420545323  0.0780555709279724  0.8314168006876059
  0.9988505391838487  0.3328399504516568  0.9983379224747253
  0.3391357034140157  0.3340272469177137  0.0026293296860587
  0.6626727197370670  0.3262641939305482  0.9942753324049249
  0.9989331091488296  0.6733489219206419  0.0038969083763973
  0.3366291946006754  0.6747239829438882  0.0034898624186752
  0.6666762944704487  0.6701575916773947  0.0015575414731046
  0.9975124630566441  0.9950606873318435  0.0035415460275203
  0.3367549967517576  0.9973763254517607  0.0006385170065428
  0.6699137368218402  0.0004968312498832  0.9998768695035949
  0.0012620897445359  0.3243533578698816  0.3349553968398737
  0.3382546626549114  0.3370985972211287  0.3383737554496022
  0.6706565729967764  0.3343328507574626  0.3359444716016000
  0.9953571273037127  0.6689865348577513  0.3340621670416226
  0.3376828802452891  0.6696414630452026  0.3371337614602297
  0.6637792817416255  0.6698953229475322  0.3308484996034053
  0.9945931245753457  0.9992947231608653  0.3268026925608893
  0.3327049278667218  0.9987069702711366  0.3329346202603105
  0.6681251923497840  0.9982328138551040  0.3329624614231150
  0.9965727239276987  0.3344799690782025  0.6632769338768441
  0.3367121002623108  0.3353901984425391  0.6699857364051383
  0.6657727075035638  0.3351380826788812  0.6652305868232844
  0.9950087893580388  0.6630834795850049  0.6609114074431446
  0.3344215182130768  0.6687645526003863  0.6661754164329139
  0.6639921864044638  0.6659550670250525  0.6614542006398736
  0.9976737752407061  0.9932049748984824  0.6622135367971111
  0.3345442577968285  0.9966356237857141  0.6675693105747769
  0.6677130621057970  0.9980407263068187  0.6717051382838122
  0.0782674286146872  0.5860134701129525  0.1651774366469141
  0.4265778424640487  0.5849653026240844  0.1709944286848852
  0.7480444259278727  0.5841173768596022  0.1682723810800155
  0.0785088183121445  0.9209062126051535  0.1666300408507553
  0.4198650452213002  0.9130918166696134  0.1663289532254879
  0.7523813812418254  0.9168528821971691  0.1658587066214210
  0.0789752443688840  0.2495552998912558  0.1691435785888800
  0.4219315358276106  0.2523394314992942  0.1667388365262070
  0.7510023758147923  0.2538172054944141  0.1713080762625410
  0.0787383465869596  0.5863078825506065  0.4999452405845730
  0.4225211214471045  0.5834598612723738  0.5030557084219680
  0.7537448110825835  0.5868900615953550  0.5078577059682132
  0.0810556283675936  0.9163473425499973  0.5034096702855351
  0.4193214749072496  0.9138640962441613  0.4979161502864287
  0.7501191804266725  0.9113425327491029  0.4980450560451217
  0.0780871136543198  0.2483267298481735  0.4917693465620872
  0.4110792036979873  0.2517918166553486  0.4959005409428627
  0.7538508918850297  0.2524017242185366  0.4986217902213212
  0.0763660195047109  0.5845987566431390  0.8302254654480521
  0.4196897603210630  0.5827458891114503  0.8351839928092630
  0.7536192192971924  0.5853966956051764  0.8343145672225702
  0.0811970566213489  0.9110444586701689  0.8272743511179783
  0.4165513323736647  0.9153856740711674  0.8319225827060706
  0.7463922307828668  0.9112184801959913  0.8283914562818495
  0.0847695100801644  0.2501184045605171  0.8339927339747035
  0.4251805371386297  0.2510821419812430  0.8357454705510676
  0.7452712500602630  0.2531059740626773  0.8361742177893774
  0.1247266040348194  0.4599091418883035  0.0844868863610841
  0.4697407328580994  0.4563808750843563  0.0887290003723393
  0.7872352524817927  0.4562485116572859  0.0817632801168031
  0.1291167492129048  0.7959175487789878  0.0883184326875934
  0.4698687272552320  0.7937836408158461  0.0832898871183190
  0.7993640014856780  0.7921228187307747  0.0832187233892796
  0.1224353701567011  0.1234818274263390  0.0836787209129923
  0.4623066223177403  0.1242700215219159  0.0829335921532106
  0.7984961208815946  0.1255548906132589  0.0922432192206983
  0.1211062955370537  0.4580339843817072  0.4167599311970065
  0.4704775387660334  0.4580542658978359  0.4234881660453880
  0.7981045551612880  0.4595247054998168  0.4250411468450039
  0.1260024376832618  0.7914976936922500  0.4191291005222766
  0.4653735989338301  0.7941103131140252  0.4099890568591675
  0.8007899971473691  0.7881242127779515  0.4198653521681663
  0.1243144842150130  0.1240099704039253  0.4092558351706401
  0.4584575680876952  0.1252355482596812  0.4167191029077202
  0.7927371634745555  0.1265477023266754  0.4098982835752309
  0.1252325028304142  0.4591447120240986  0.7515679462246752
  0.4669072959794462  0.4577890352987737  0.7543032136048495
  0.7936621302239786  0.4617412637233897  0.7436946089124348
  0.1266832141252010  0.7876331141609398  0.7431292751793208
  0.4622926714038798  0.7936727611349639  0.7451916780358943
  0.7917855519267150  0.7917633763453438  0.7399900627917688
  0.1227640754214363  0.1214845575977250  0.7478025473108687
  0.4656390668824457  0.1204397231478538  0.7544268044880269
  0.7904391990291018  0.1277228448550716  0.7516683765288619
  0.2964772625898320  0.6257586971003377  0.0855953787983665
  0.6244739568207365  0.6361796506772990  0.0907672376940027
  0.9514234043514023  0.6317483651827445  0.0857937540330695
  0.2929021869715100  0.9590004670794769  0.0862463962642153
  0.6200483570716671  0.9508225812920301  0.0773220517197686
  0.9458500381238082  0.9600911180494407  0.0865051819342924
  0.2909288510164103  0.2906405724256018  0.0832970993569191
  0.6252388372784239  0.2985947310201169  0.0884335269084531
  0.9542231543136523  0.2902505085632896  0.0816882502431469
  0.2931684039967664  0.6244778175643475  0.4189472829346172
  0.6287725175304288  0.6273273611493266  0.4192488754147590
  0.9522751558149096  0.6334300046827437  0.4214149493754817
  0.2892848081886825  0.9550098566259706  0.4154715816634393
  0.6216713134946019  0.9515402878217003  0.4129593508101337
  0.9581598149840005  0.9578037291794317  0.4147575493329754
  0.2780186741184352  0.2824934987892860  0.4072681881490681
  0.6238798849363505  0.2997350313336895  0.4217888264834428
  0.9451884630003491  0.2925679064496691  0.4176132336753398
  0.2917090946297449  0.6214418861480198  0.7476598847465397
  0.6257526710958814  0.6269717728280497  0.7498557677712725
  0.9460853554750415  0.6190784628465167  0.7420120401031554
  0.2815850950224785  0.9463357910398997  0.7428339242663213
  0.6158539885927325  0.9564123882499800  0.7511668221632206
  0.9507243848664046  0.9511488041606881  0.7445219781632062
  0.2937227984969084  0.2907578929926018  0.7523703365817411
  0.6226517292431168  0.3014362643604258  0.7541661097083292
  0.9583141079052879  0.2925252848147082  0.7496872689552347
  0.2081582478083916  0.3744735357732907  0.2515994251954226
  0.5488440181327476  0.3772715273187046  0.2466194916134796
  0.8786522329621036  0.3781697342025439  0.2554306178344561
  0.2091060909698115  0.7075844792028931  0.2506108879844078
  0.5439396366521976  0.7208711496321882  0.2483873458074584
  0.8752527096368539  0.7097266162415821  0.2416870906302719
  0.2053654511588476  0.0471565505133995  0.2546502007744067
  0.5423749158092193  0.0439554516847025  0.2519816085453570
  0.8715137654239555  0.0527264515665564  0.2512224379787682
  0.2074562235868456  0.3720207882739928  0.5830194451559692
  0.5413136564916812  0.3755239250728479  0.5758900909678886
  0.8740509217239634  0.3851047137479355  0.5836771862635075
  0.2050886455666827  0.7132166420472643  0.5873377703415912
  0.5395327593665442  0.7195216744396689  0.5873650895120477
  0.8746312706946355  0.7188275502847290  0.5834908502010805
  0.2093779392297819  0.0412037496407791  0.5830005034467618
  0.5441990044006602  0.0427898117719465  0.5856074683969155
  0.8738125495003715  0.0412505649093404  0.5804573421479731
  0.2107532217925652  0.3761665141036517  0.9195789717241638
  0.5464062841780262  0.3816773020234621  0.9131845851285121
  0.8730890311754536  0.3784272137123565  0.9163954704066768
  0.2068582855640315  0.7081469970250538  0.9142647542545674
  0.5401583739229778  0.7160284085142834  0.9201312812218205
  0.8731567825030524  0.7198516247805316  0.9229894866983628
  0.2082150228294495  0.0377359053531592  0.9159864570823402
  0.5444214410298898  0.0424357980376797  0.9127678761482727
  0.8731965521365908  0.0378549950952305  0.9161550145949349
  0.0395884142527478  0.5429711570628228  0.2508991837351573
  0.3785807346533403  0.5410993648932489  0.2521959651701167
  0.7022352086685899  0.5358587240809314  0.2478202612871030
  0.0326407514883016  0.8669325420186880  0.2437531349692676
  0.3844113472967976  0.8743046506986971  0.2556765000261834
  0.7047340082153539  0.8693613903371684  0.2455766694856436
  0.0385617879251825  0.1951609951440361  0.2486229592679052
  0.3754989524231078  0.2101451005816557  0.2492707313932172
  0.7132259507014069  0.2053580599262403  0.2545617905195670
  0.0323061143568140  0.5310896684514574  0.5760483948964605
  0.3736906305142398  0.5380318187117794  0.5822807905912413
  0.7069993775718402  0.5330283586027562  0.5838066334213892
  0.0415485798629689  0.8635587789912904  0.5833752838185404
  0.3833542531960248  0.8726739080568962  0.5868208034190801
  0.7166334135901309  0.8757693859096776  0.5898851149760205
  0.0422390146806535  0.2090456368022515  0.5815790140793595
  0.3762856602428570  0.2079528611233670  0.5837124449882864
  0.7083807005321319  0.2078109200914184  0.5808698957992107
  0.0409568419771915  0.5457946662686837  0.9196190418947268
  0.3767960177242813  0.5433030499521578  0.9202433874957592
  0.7002810902927408  0.5386064578607872  0.9114289150576411
  0.0400711826768401  0.8733810213502196  0.9149300223168808
  0.3849091569849961  0.8715219025637779  0.9217449580903434
  0.7175474293348714  0.8729778507470911  0.9222507629812000
  0.0400132252261756  0.2045689545201910  0.9150930513683022
  0.3744032817755425  0.2047603675202012  0.9137425060549305
  0.6996510077532463  0.1950685603746436  0.9105436488436780

  0.00000000E+00  0.00000000E+00  0.00000000E+00
  0.00000000E+00  0.00000000E+00  0.00000000E+00
  0.00000000E+00  0.00000000E+00  0.00000000E+00
  0.00000000E+00  0.00000000E+00  0.00000000E+00
  0.00000000E+00  0.00000000E+00  0.00000000E+00
  0.00000000E+00  0.00000000E+00  0.00000000E+00
  0.00000000E+00  0.00000000E+00  0.00000000E+00
  0.00000000E+00  0.00000000E+00  0.00000000E+00
  0.00000000E+00  0.00000000E+00  0.00000000E+00
  0.00000000E+00  0.00000000E+00  0.00000000E+00
  0.00000000E+00  0.00000000E+00  0.00000000E+00
  0.00000000E+00  0.00000000E+00  0.00000000E+00
  0.00000000E+00  0.00000000E+00  0.00000000E+00
  0.00000000E+00  0.00000000E+00  0.00000000E+00
  0.00000000E+00  0.00000000E+00  0.00000000E+00
  0.00000000E+00  0.00000000E+00  0.00000000E+00
  0.00000000E+00  0.00000000E+00  0.00000000E+00
  0.00000000E+00  0.00000000E+00  0.00000000E+00
  0.00000000E+00  0.00000000E+00  0.00000000E+00
  0.00000000E+00  0.00000000E+00  0.00000000E+00
  0.00000000E+00  0.00000000E+00  0.00000000E+00
  0.00000000E+00  0.00000000E+00  0.00000000E+00
  0.00000000E+00  0.00000000E+00  0.00000000E+00
  0.00000000E+00  0.00000000E+00  0.00000000E+00
  0.00000000E+00  0.00000000E+00  0.00000000E+00
  0.00000000E+00  0.00000000E+00  0.00000000E+00
  0.00000000E+00  0.00000000E+00  0.00000000E+00
  0.00000000E+00  0.00000000E+00  0.00000000E+00
  0.00000000E+00  0.00000000E+00  0.00000000E+00
  0.00000000E+00  0.00000000E+00  0.00000000E+00
  0.00000000E+00  0.00000000E+00  0.00000000E+00
  0.00000000E+00  0.00000000E+00  0.00000000E+00
  0.00000000E+00  0.00000000E+00  0.00000000E+00
  0.00000000E+00  0.00000000E+00  0.00000000E+00
  0.00000000E+00  0.00000000E+00  0.00000000E+00
  0.00000000E+00  0.00000000E+00  0.00000000E+00
  0.00000000E+00  0.00000000E+00  0.00000000E+00
  0.00000000E+00  0.00000000E+00  0.00000000E+00
  0.00000000E+00  0.00000000E+00  0.00000000E+00
  0.00000000E+00  0.00000000E+00  0.00000000E+00
  0.00000000E+00  0.00000000E+00  0.00000000E+00
  0.00000000E+00  0.00000000E+00  0.00000000E+00
  0.00000000E+00  0.00000000E+00  0.00000000E+00
  0.00000000E+00  0.00000000E+00  0.00000000E+00
  0.00000000E+00  0.00000000E+00  0.00000000E+00
  0.00000000E+00  0.00000000E+00  0.00000000E+00
  0.00000000E+00  0.00000000E+00  0.00000000E+00
  0.00000000E+00  0.00000000E+00  0.00000000E+00
  0.00000000E+00  0.00000000E+00  0.00000000E+00
  0.00000000E+00  0.00000000E+00  0.00000000E+00
  0.00000000E+00  0.00000000E+00  0.00000000E+00
  0.00000000E+00  0.00000000E+00  0.00000000E+00
  0.00000000E+00  0.00000000E+00  0.00000000E+00
  0.00000000E+00  0.00000000E+00  0.00000000E+00
  0.00000000E+00  0.00000000E+00  0.00000000E+00
  0.00000000E+00  0.00000000E+00  0.00000000E+00
  0.00000000E+00  0.00000000E+00  0.00000000E+00
  0.00000000E+00  0.00000000E+00  0.00000000E+00
  0.00000000E+00  0.00000000E+00  0.00000000E+00
  0.00000000E+00  0.00000000E+00  0.00000000E+00
  0.00000000E+00  0.00000000E+00  0.00000000E+00
  0.00000000E+00  0.00000000E+00  0.00000000E+00
  0.00000000E+00  0.00000000E+00  0.00000000E+00
  0.00000000E+00  0.00000000E+00  0.00000000E+00
  0.00000000E+00  0.00000000E+00  0.00000000E+00
  0.00000000E+00  0.00000000E+00  0.00000000E+00
  0.00000000E+00  0.00000000E+00  0.00000000E+00
  0.00000000E+00  0.00000000E+00  0.00000000E+00
  0.00000000E+00  0.00000000E+00  0.00000000E+00
  0.00000000E+00  0.00000000E+00  0.00000000E+00
  0.00000000E+00  0.00000000E+00  0.00000000E+00
  0.00000000E+00  0.00000000E+00  0.00000000E+00
  0.00000000E+00  0.00000000E+00  0.00000000E+00
  0.00000000E+00  0.00000000E+00  0.00000000E+00
  0.00000000E+00  0.00000000E+00  0.00000000E+00
  0.00000000E+00  0.00000000E+00  0.00000000E+00
  0.00000000E+00  0.00000000E+00  0.00000000E+00
  0.00000000E+00  0.00000000E+00  0.00000000E+00
  0.00000000E+00  0.00000000E+00  0.00000000E+00
  0.00000000E+00  0.00000000E+00  0.00000000E+00
  0.00000000E+00  0.00000000E+00  0.00000000E+00
  0.00000000E+00  0.00000000E+00  0.00000000E+00
  0.00000000E+00  0.00000000E+00  0.00000000E+00
  0.00000000E+00  0.00000000E+00  0.00000000E+00
  0.00000000E+00  0.00000000E+00  0.00000000E+00
  0.00000000E+00  0.00000000E+00  0.00000000E+00
  0.00000000E+00  0.00000000E+00  0.00000000E+00
  0.00000000E+00  0.00000000E+00  0.00000000E+00
  0.00000000E+00  0.00000000E+00  0.00000000E+00
  0.00000000E+00  0.00000000E+00  0.00000000E+00
  0.00000000E+00  0.00000000E+00  0.00000000E+00
  0.00000000E+00  0.00000000E+00  0.00000000E+00
  0.00000000E+00  0.00000000E+00  0.00000000E+00
  0.00000000E+00  0.00000000E+00  0.00000000E+00
  0.00000000E+00  0.00000000E+00  0.00000000E+00
  0.00000000E+00  0.00000000E+00  0.00000000E+00
  0.00000000E+00  0.00000000E+00  0.00000000E+00
  0.00000000E+00  0.00000000E+00  0.00000000E+00
  0.00000000E+00  0.00000000E+00  0.00000000E+00
  0.00000000E+00  0.00000000E+00  0.00000000E+00
  0.00000000E+00  0.00000000E+00  0.00000000E+00
  0.00000000E+00  0.00000000E+00  0.00000000E+00
  0.00000000E+00  0.00000000E+00  0.00000000E+00
  0.00000000E+00  0.00000000E+00  0.00000000E+00
  0.00000000E+00  0.00000000E+00  0.00000000E+00
  0.00000000E+00  0.00000000E+00  0.00000000E+00
  0.00000000E+00  0.00000000E+00  0.00000000E+00
  0.00000000E+00  0.00000000E+00  0.00000000E+00
  0.00000000E+00  0.00000000E+00  0.00000000E+00
  0.00000000E+00  0.00000000E+00  0.00000000E+00
  0.00000000E+00  0.00000000E+00  0.00000000E+00
  0.00000000E+00  0.00000000E+00  0.00000000E+00
  0.00000000E+00  0.00000000E+00  0.00000000E+00
  0.00000000E+00  0.00000000E+00  0.00000000E+00
  0.00000000E+00  0.00000000E+00  0.00000000E+00
  0.00000000E+00  0.00000000E+00  0.00000000E+00
  0.00000000E+00  0.00000000E+00  0.00000000E+00
  0.00000000E+00  0.00000000E+00  0.00000000E+00
  0.00000000E+00  0.00000000E+00  0.00000000E+00
  0.00000000E+00  0.00000000E+00  0.00000000E+00
  0.00000000E+00  0.00000000E+00  0.00000000E+00
  0.00000000E+00  0.00000000E+00  0.00000000E+00
  0.00000000E+00  0.00000000E+00  0.00000000E+00
  0.00000000E+00  0.00000000E+00  0.00000000E+00
  0.00000000E+00  0.00000000E+00  0.00000000E+00
  0.00000000E+00  0.00000000E+00  0.00000000E+00
  0.00000000E+00  0.00000000E+00  0.00000000E+00
  0.00000000E+00  0.00000000E+00  0.00000000E+00
  0.00000000E+00  0.00000000E+00  0.00000000E+00
  0.00000000E+00  0.00000000E+00  0.00000000E+00
  0.00000000E+00  0.00000000E+00  0.00000000E+00
  0.00000000E+00  0.00000000E+00  0.00000000E+00
  0.00000000E+00  0.00000000E+00  0.00000000E+00
  0.00000000E+00  0.00000000E+00  0.00000000E+00
  0.00000000E+00  0.00000000E+00  0.00000000E+00
  0.00000000E+00  0.00000000E+00  0.00000000E+00
  0.00000000E+00  0.00000000E+00  0.00000000E+00
  0.00000000E+00  0.00000000E+00  0.00000000E+00
  0.00000000E+00  0.00000000E+00  0.00000000E+00
  0.00000000E+00  0.00000000E+00  0.00000000E+00
  0.00000000E+00  0.00000000E+00  0.00000000E+00
  0.00000000E+00  0.00000000E+00  0.00000000E+00
  0.00000000E+00  0.00000000E+00  0.00000000E+00
  0.00000000E+00  0.00000000E+00  0.00000000E+00
  0.00000000E+00  0.00000000E+00  0.00000000E+00
  0.00000000E+00  0.00000000E+00  0.00000000E+00
  0.00000000E+00  0.00000000E+00  0.00000000E+00
  0.00000000E+00  0.00000000E+00  0.00000000E+00
  0.00000000E+00  0.00000000E+00  0.00000000E+00
  0.00000000E+00  0.00000000E+00  0.00000000E+00
  0.00000000E+00  0.00000000E+00  0.00000000E+00
  0.00000000E+00  0.00000000E+00  0.00000000E+00
  0.00000000E+00  0.00000000E+00  0.00000000E+00
  0.00000000E+00  0.00000000E+00  0.00000000E+00
  0.00000000E+00  0.00000000E+00  0.00000000E+00
  0.00000000E+00  0.00000000E+00  0.00000000E+00
  0.00000000E+00  0.00000000E+00  0.00000000E+00
  0.00000000E+00  0.00000000E+00  0.00000000E+00
  0.00000000E+00  0.00000000E+00  0.00000000E+00
  0.00000000E+00  0.00000000E+00  0.00000000E+00
  0.00000000E+00  0.00000000E+00  0.00000000E+00
  0.00000000E+00  0.00000000E+00  0.00000000E+00
  0.00000000E+00  0.00000000E+00  0.00000000E+00
  0.00000000E+00  0.00000000E+00  0.00000000E+00
  0.00000000E+00  0.00000000E+00  0.00000000E+00
  0.00000000E+00  0.00000000E+00  0.00000000E+00
  0.00000000E+00  0.00000000E+00  0.00000000E+00
  0.00000000E+00  0.00000000E+00  0.00000000E+00
  0.00000000E+00  0.00000000E+00  0.00000000E+00
  0.00000000E+00  0.00000000E+00  0.00000000E+00
  0.00000000E+00  0.00000000E+00  0.00000000E+00
  0.00000000E+00  0.00000000E+00  0.00000000E+00
  0.00000000E+00  0.00000000E+00  0.00000000E+00
  0.00000000E+00  0.00000000E+00  0.00000000E+00
  0.00000000E+00  0.00000000E+00  0.00000000E+00
  0.00000000E+00  0.00000000E+00  0.00000000E+00
  0.00000000E+00  0.00000000E+00  0.00000000E+00
  0.00000000E+00  0.00000000E+00  0.00000000E+00
  0.00000000E+00  0.00000000E+00  0.00000000E+00
  0.00000000E+00  0.00000000E+00  0.00000000E+00
  0.00000000E+00  0.00000000E+00  0.00000000E+00
  0.00000000E+00  0.00000000E+00  0.00000000E+00
  0.00000000E+00  0.00000000E+00  0.00000000E+00
  0.00000000E+00  0.00000000E+00  0.00000000E+00
  0.00000000E+00  0.00000000E+00  0.00000000E+00
  0.00000000E+00  0.00000000E+00  0.00000000E+00
  0.00000000E+00  0.00000000E+00  0.00000000E+00
  0.00000000E+00  0.00000000E+00  0.00000000E+00
  0.00000000E+00  0.00000000E+00  0.00000000E+00
  0.00000000E+00  0.00000000E+00  0.00000000E+00
  0.00000000E+00  0.00000000E+00  0.00000000E+00
  0.00000000E+00  0.00000000E+00  0.00000000E+00
  0.00000000E+00  0.00000000E+00  0.00000000E+00
  0.00000000E+00  0.00000000E+00  0.00000000E+00
  0.00000000E+00  0.00000000E+00  0.00000000E+00
  0.00000000E+00  0.00000000E+00  0.00000000E+00
  0.00000000E+00  0.00000000E+00  0.00000000E+00
  0.00000000E+00  0.00000000E+00  0.00000000E+00
  0.00000000E+00  0.00000000E+00  0.00000000E+00
  0.00000000E+00  0.00000000E+00  0.00000000E+00
  0.00000000E+00  0.00000000E+00  0.00000000E+00
  0.00000000E+00  0.00000000E+00  0.00000000E+00
  0.00000000E+00  0.00000000E+00  0.00000000E+00
  0.00000000E+00  0.00000000E+00  0.00000000E+00
  0.00000000E+00  0.00000000E+00  0.00000000E+00
  0.00000000E+00  0.00000000E+00  0.00000000E+00
  0.00000000E+00  0.00000000E+00  0.00000000E+00
  0.00000000E+00  0.00000000E+00  0.00000000E+00
  0.00000000E+00  0.00000000E+00  0.00000000E+00
  0.00000000E+00  0.00000000E+00  0.00000000E+00
  0.00000000E+00  0.00000000E+00  0.00000000E+00
  0.00000000E+00  0.00000000E+00  0.00000000E+00
  0.00000000E+00  0.00000000E+00  0.00000000E+00
  0.00000000E+00  0.00000000E+00  0.00000000E+00
  0.00000000E+00  0.00000000E+00  0.00000000E+00
  0.00000000E+00  0.00000000E+00  0.00000000E+00
