In6 Ga48 Cu42 Ag12 Se108                
   1.0000000000000000     
    15.7709869761105494    0.0102627519125101   -7.1361249301890135
    -3.2499875025356357   15.4148885137990881   -7.1506055371218320
     0.0129613119509169    0.0477379735688715   21.0197925404597719
   In   Ga   Cu   Ag   Se
     6    48    42    12   108
Direct
  0.1622002816031340  0.5050405667473328  0.0016547131971691
  0.1623102464296622  0.8354062057255902  0.9989621745674171
  0.1631330184506723  0.8360992456783762  0.3356640361932648
  0.2488127813524130  0.4160527478419880  0.1689637540077200
  0.9162031548336103  0.4189409960678248  0.5006531901876770
  0.2523333837708179  0.4163379241950409  0.8296459391206881
  0.5092551439418997  0.5017795398608058  0.0023369277448069
  0.8311251567213773  0.5005620387230110  0.9994843672050848
  0.5007981015681224  0.8315862682867703  0.0006745131037817
  0.8356808429827609  0.8313038332380103  0.9988149699525479
  0.1651369920308809  0.1590050438863742  0.9993747968827407
  0.5012298984369821  0.1696104269892444  0.9998801539946101
  0.8324055924301632  0.1679772438063836  0.0000189300226907
  0.1629357603012096  0.5001961337141907  0.3379693634101315
  0.5046823754060910  0.4980781048571572  0.3333980864571870
  0.8334148909779486  0.5018461432484429  0.3335857250317744
  0.5040669696610109  0.8341704122502875  0.3355923196091837
  0.8361632247927560  0.8325266092864254  0.3358360836536960
  0.1668431748682835  0.1659758188419360  0.3346978252986830
  0.5019670442058697  0.1712022550218677  0.3355866144062603
  0.8339896398891540  0.1677654791295282  0.3327789845688258
  0.1675206877887163  0.5023007198053975  0.6657998852048763
  0.4983000610119319  0.4993005036028180  0.6642642164084052
  0.8310388057022777  0.5020347731191208  0.6662570562176313
  0.1613906829944867  0.8307804733154214  0.6659577591697001
  0.5010873271396576  0.8276663214863120  0.6645340380858613
  0.8349638008667100  0.8306347055509562  0.6653249375039536
  0.1656887620458036  0.1642354959118961  0.6626188965432931
  0.4998919826009711  0.1702624341576708  0.6657868723424016
  0.8338060981664270  0.1660869753143999  0.6649857987676242
  0.5880003200710959  0.4190551201994737  0.1688257117096725
  0.9134838062007873  0.4183796523886514  0.1673340245688593
  0.2488651965947710  0.7514349799165032  0.1718632145195045
  0.5907386673268746  0.7482719669262892  0.1703281459670478
  0.9149343139628598  0.7495857616742754  0.1654384552036205
  0.2513310801031565  0.0850583290566291  0.1694187530097011
  0.5829078223753896  0.0879126124162255  0.1679544479534556
  0.9198495262617996  0.0853383612006411  0.1693487215655267
  0.2489604141212993  0.4154056794723573  0.4998489276225939
  0.5834816998395596  0.4190014512005504  0.4987128848254230
  0.2491260717128227  0.7481219608664702  0.5034802570266947
  0.5868646804336706  0.7475679779961766  0.4998171254533545
  0.9160950365253697  0.7482383507393706  0.5001228763743626
  0.2517100680649733  0.0868978253915884  0.5012161019772989
  0.5815017161472298  0.0818822736381861  0.4972335263630399
  0.9175348496287867  0.0845605662710653  0.5004247376327697
  0.5823847143632861  0.4161184703880281  0.8329147392488920
  0.9118693151139823  0.4200021655034121  0.8307437377991462
  0.2479365468899957  0.7468981961822507  0.8309517864564953
  0.5858209975519415  0.7448987790652026  0.8303284789301628
  0.9115601734128163  0.7491915736059411  0.8290991589455601
  0.2482233008596779  0.0799503247662656  0.8302206618767158
  0.5846894265068201  0.0861453365769620  0.8325071842912735
  0.9155359511147623  0.0814628041999299  0.8340323623988795
  0.9917267204560716  0.3319955283560390  0.9949245085688858
  0.6683134082242148  0.3333023683791296  0.9999396996259833
  0.9972529622437492  0.6673161852175369  0.0011207908707576
  0.6638635381585871  0.6630710110011151  0.9961922861829891
  0.9920100206137477  0.9971551904429532  0.9968995055432615
  0.3330138931132467  0.0056785346968340  0.9996967764537743
  0.9986520445528981  0.3340461330971323  0.3339277058181622
  0.3392384141177018  0.3334341916807801  0.3399566570897363
  0.6653978573789345  0.3318942316965803  0.3309400012475052
  0.9981405522003541  0.6649990202623073  0.3344282043830944
  0.6703521056062627  0.6669578868651627  0.3349817110831097
  0.0003366354582681  0.0035715585946079  0.3372643050436395
  0.3331978727935550  0.0062205969660738  0.3364442381591033
  0.6711900756815226  0.0043572247793335  0.3388468540253839
  0.9977239763970545  0.3333433023691228  0.6630262446880906
  0.3330015820205503  0.3347102159116417  0.6644054267030768
  0.0007923021726199  0.6697072420043924  0.6677491210126405
  0.3307578203879302  0.6616032413024442  0.6648843410588370
  0.6657981239060220  0.6642543212703131  0.6647185324741400
  0.9971133409280171  0.9970583694488440  0.6644569981448925
  0.0738163730793673  0.5808381227137644  0.1662865045554085
  0.4264928132417793  0.5881506392539322  0.1711289354303602
  0.7540717908247316  0.5846899363760443  0.1686070273247111
  0.0815932457118151  0.9190625114393356  0.1672255620768937
  0.4206318193901879  0.2473467698835563  0.1695851221885576
  0.7498258478508291  0.2555457870469837  0.1691498424808486
  0.0847713590832342  0.5857703643246452  0.5007140453429599
  0.4185469746713011  0.5814350810236846  0.5010960585910524
  0.7499249548641913  0.5850435568187962  0.5001864133481533
  0.0777356738296007  0.9138742910967395  0.4995240430779688
  0.4178291220677934  0.9186229997432065  0.5007112659796249
  0.7522801589204704  0.9175678622641428  0.4979993120358870
  0.0850435066931183  0.2489594553979373  0.5011231658403545
  0.4140825519631193  0.2469244962088979  0.4970285879101297
  0.7476148176019919  0.2490311350353949  0.4962992546887079
  0.0728922915595760  0.5796781879043067  0.8240672822742781
  0.4229286296994061  0.5846753116050749  0.8304907530365853
  0.7497843865910241  0.5884329691609409  0.8367127866088282
  0.0805511183582439  0.9169354225832933  0.8305469326722061
  0.7511977447691933  0.9147097273639488  0.8309634322321671
  0.4200886822344074  0.2509348675302263  0.8321608678173007
  0.7513035000196027  0.2522643403355573  0.8363446674316037
  0.3418335111934994  0.3315967593029754  0.0054062313914613
  0.3315274773483807  0.6647158811552458  0.9981787587635509
  0.6748975394695051  0.0003364526966152  0.0000964110008539
  0.3362539936941360  0.6675354396409361  0.3383760404463345
  0.6649980632817432  0.3325258574239598  0.6624406906128328
  0.3321882431880994  0.9979881750225417  0.6627895939184540
  0.6689861128429939  0.9989513647180317  0.6668489789490550
  0.4208081542346136  0.9181404279330110  0.1738620641454034
  0.7502854486224422  0.9136123603199522  0.1665745457761432
  0.0819953586249724  0.2499385324093808  0.1635555896447514
  0.4197692720359072  0.9099273103028978  0.8362188688714554
  0.0740133681781501  0.2426547690600387  0.8290070322977456
  0.1099635019557113  0.4561844298677045  0.0833352217087935
  0.4681929354306718  0.4678593297275668  0.0890272673215406
  0.7886695186374411  0.4595173096843439  0.0832814314284391
  0.1205511110562583  0.7904538193164043  0.0891132202706970
  0.4699633867974100  0.7903892023060166  0.0873376096007945
  0.7900656877894434  0.7819762020160752  0.0752246097406015
  0.1222678039730312  0.1129365660908590  0.0783917837312487
  0.4574026309718917  0.1268481331722455  0.0823269679413130
  0.8003526682546038  0.1366662439219226  0.0921491808845758
  0.1202871023429992  0.4574788615521186  0.4195039324276379
  0.4583221096105916  0.4596486556589170  0.4160907078733729
  0.7819733731240177  0.4608609658692657  0.4112427066456306
  0.1203119211418553  0.7883661659344270  0.4234648299725094
  0.4677452529037041  0.8001858398015855  0.4242359007080339
  0.7921792146961266  0.7910698632209758  0.4177146228327615
  0.1248536555209299  0.1253319232531140  0.4179711980289795
  0.4577651018882989  0.1267504457430633  0.4159463269258694
  0.7927959247777991  0.1271474887072301  0.4171995085606994
  0.1158220597708350  0.4595099277784129  0.7425325295545093
  0.4571280096277519  0.4570279793589123  0.7476956921237843
  0.7916170508305527  0.4690532534034730  0.7536362536128323
  0.1222379441943531  0.7920742349886538  0.7512755346921125
  0.4588779756704966  0.7790658060304949  0.7431598545110774
  0.7863132915874189  0.7900310350839561  0.7456595764415255
  0.1239599481450497  0.1159507952499652  0.7421391060956211
  0.4631574290764746  0.1305184561513997  0.7511917696501129
  0.7982547525052581  0.1342442730563178  0.7556882210454603
  0.2997751108394411  0.6314361632552945  0.0968435398663061
  0.6341299817096200  0.6266962182237563  0.0855020207337915
  0.9572849666143028  0.6243581902954176  0.0827061132407465
  0.2955496043041066  0.9677997026987910  0.0847492558166181
  0.6176298406722438  0.9606978984190917  0.0829693989286895
  0.9586995265769360  0.9590485196802305  0.0833393815976393
  0.2918695478641808  0.2785102057658619  0.0850860859654432
  0.6278919487992596  0.2939124132692754  0.0835258712914708
  0.9510548108476513  0.2964153778425498  0.0785470492002958
  0.2894283096281995  0.6211365472104973  0.4237648823898894
  0.6285579100268848  0.6240459176392221  0.4157697634505482
  0.9600518934864724  0.6245801192912808  0.4179776749579034
  0.2994141117950235  0.9659277224659988  0.4221340562296305
  0.6280647730171367  0.9593599864429692  0.4171661762607783
  0.9597711865309364  0.9588787082858019  0.4174339468609602
  0.2920937320996799  0.2903269613299244  0.4173941939612078
  0.6275695971470725  0.2948567845676493  0.4169279459254156
  0.9629343183605030  0.2866795071003949  0.4145131000039655
  0.2957224534721163  0.6242750821376859  0.7510250255881417
  0.6271274665892079  0.6209393735913196  0.7471174395330706
  0.9550550275245797  0.6264235080376466  0.7453627170243777
  0.2846971473187452  0.9529237614359971  0.7484462717807219
  0.6233930063718560  0.9543465852234263  0.7540806118551302
  0.9580913445493167  0.9584729774026002  0.7485681444225349
  0.2961505497690666  0.2820143664594283  0.7421266245085718
  0.6263063405139775  0.2908058833431681  0.7543208749359920
  0.9509527589293825  0.2966670864490339  0.7437832563333444
  0.2149360384515617  0.3793095005855918  0.2653408060977327
  0.5425310805386232  0.3714865998241876  0.2479430509407834
  0.8753593783187625  0.3754115363339139  0.2519356308742289
  0.1990730792449469  0.6996667064661608  0.2437092115803026
  0.5472625255138794  0.7091565123561026  0.2538788625381372
  0.8772856267944817  0.7076059695949510  0.2513023555318910
  0.2078138763147450  0.0399884887661983  0.2506133971903921
  0.5524405743620449  0.0515285555815481  0.2584371240273882
  0.8809256204100322  0.0460823627661640  0.2543080421418651
  0.2074774058862729  0.3737575845548022  0.5834716963174316
  0.5318721673004134  0.3747789872828946  0.5746684230225227
  0.8691035299175383  0.3720773784708413  0.5862104427003771
  0.2085870975574338  0.7070835680427408  0.5869540983115158
  0.5432102090854798  0.7033834894746320  0.5811440327407524
  0.8760834550838581  0.7045161990851909  0.5830404408470429
  0.1983560797954524  0.0390132210697445  0.5740083546316797
  0.5363471560751449  0.0447175193048395  0.5799969509266418
  0.8761567430863977  0.0399955811374113  0.5830007196640210
  0.2080424065141031  0.3734933469269848  0.9171218651164850
  0.5441889762826904  0.3728054616106249  0.9173766737009075
  0.8723119113370785  0.3760802476273568  0.9142340050712647
  0.1974878230996779  0.6989696841495103  0.9048294339322922
  0.5439820480380604  0.7081008790144736  0.9159334683121472
  0.8764227735404404  0.7071560770782028  0.9159047765503416
  0.2063750349709963  0.0373878118710138  0.9131206514024512
  0.5433954684702016  0.0492453486967364  0.9163853393940258
  0.8707313967116903  0.0396856845168543  0.9159021551039501
  0.0395810769695046  0.5428203419182225  0.2525369076086861
  0.3868971557243199  0.5423090559269426  0.2498090600899943
  0.7112833922270454  0.5457565971350249  0.2507921629071248
  0.0317694689802934  0.8812856654937562  0.2462273619780291
  0.3726799957901505  0.8761968170006043  0.2602980706233922
  0.7096779800915343  0.8761490171032023  0.2592085736661929
  0.0420878471843480  0.2095231499903676  0.2559733881274795
  0.3760014240243876  0.2121186258685697  0.2526780537216737
  0.7097775891960012  0.2117531183684918  0.2498454784252857
  0.0482951962115123  0.5526656103187051  0.5880755686219317
  0.3731356693757135  0.5417069097752574  0.5819398049577487
  0.7078641786743347  0.5439527423935360  0.5818282586025774
  0.0385734956351484  0.8744256243070865  0.5830880734252162
  0.3785130163577719  0.8663537455060748  0.5772199746539499
  0.7135851619726452  0.8687119139470028  0.5774888262715550
  0.0414001874931884  0.2113776046313873  0.5836112410541432
  0.3755318552423148  0.2129911872864056  0.5832007292607813
  0.7094228107610263  0.2007551171468549  0.5756978228514456
  0.0321154636805332  0.5482999258358703  0.9101469021988677
  0.3900479730281035  0.5429671749235112  0.9156169117452677
  0.7064529138230640  0.5420752105244873  0.9148280761893233
  0.0297446502440479  0.8787243834275316  0.9086941975374927
  0.3704061852230680  0.8724008988639156  0.9243679099902096
  0.7123486170695656  0.8666830209828476  0.9099037121105482
  0.0386497358735767  0.2055616139966858  0.9240065608426349
  0.3765391216160339  0.2011181481218216  0.9080857539296261
  0.7093449968835444  0.2109052234650548  0.9169600954271004

  0.00000000E+00  0.00000000E+00  0.00000000E+00
  0.00000000E+00  0.00000000E+00  0.00000000E+00
  0.00000000E+00  0.00000000E+00  0.00000000E+00
  0.00000000E+00  0.00000000E+00  0.00000000E+00
  0.00000000E+00  0.00000000E+00  0.00000000E+00
  0.00000000E+00  0.00000000E+00  0.00000000E+00
  0.00000000E+00  0.00000000E+00  0.00000000E+00
  0.00000000E+00  0.00000000E+00  0.00000000E+00
  0.00000000E+00  0.00000000E+00  0.00000000E+00
  0.00000000E+00  0.00000000E+00  0.00000000E+00
  0.00000000E+00  0.00000000E+00  0.00000000E+00
  0.00000000E+00  0.00000000E+00  0.00000000E+00
  0.00000000E+00  0.00000000E+00  0.00000000E+00
  0.00000000E+00  0.00000000E+00  0.00000000E+00
  0.00000000E+00  0.00000000E+00  0.00000000E+00
  0.00000000E+00  0.00000000E+00  0.00000000E+00
  0.00000000E+00  0.00000000E+00  0.00000000E+00
  0.00000000E+00  0.00000000E+00  0.00000000E+00
  0.00000000E+00  0.00000000E+00  0.00000000E+00
  0.00000000E+00  0.00000000E+00  0.00000000E+00
  0.00000000E+00  0.00000000E+00  0.00000000E+00
  0.00000000E+00  0.00000000E+00  0.00000000E+00
  0.00000000E+00  0.00000000E+00  0.00000000E+00
  0.00000000E+00  0.00000000E+00  0.00000000E+00
  0.00000000E+00  0.00000000E+00  0.00000000E+00
  0.00000000E+00  0.00000000E+00  0.00000000E+00
  0.00000000E+00  0.00000000E+00  0.00000000E+00
  0.00000000E+00  0.00000000E+00  0.00000000E+00
  0.00000000E+00  0.00000000E+00  0.00000000E+00
  0.00000000E+00  0.00000000E+00  0.00000000E+00
  0.00000000E+00  0.00000000E+00  0.00000000E+00
  0.00000000E+00  0.00000000E+00  0.00000000E+00
  0.00000000E+00  0.00000000E+00  0.00000000E+00
  0.00000000E+00  0.00000000E+00  0.00000000E+00
  0.00000000E+00  0.00000000E+00  0.00000000E+00
  0.00000000E+00  0.00000000E+00  0.00000000E+00
  0.00000000E+00  0.00000000E+00  0.00000000E+00
  0.00000000E+00  0.00000000E+00  0.00000000E+00
  0.00000000E+00  0.00000000E+00  0.00000000E+00
  0.00000000E+00  0.00000000E+00  0.00000000E+00
  0.00000000E+00  0.00000000E+00  0.00000000E+00
  0.00000000E+00  0.00000000E+00  0.00000000E+00
  0.00000000E+00  0.00000000E+00  0.00000000E+00
  0.00000000E+00  0.00000000E+00  0.00000000E+00
  0.00000000E+00  0.00000000E+00  0.00000000E+00
  0.00000000E+00  0.00000000E+00  0.00000000E+00
  0.00000000E+00  0.00000000E+00  0.00000000E+00
  0.00000000E+00  0.00000000E+00  0.00000000E+00
  0.00000000E+00  0.00000000E+00  0.00000000E+00
  0.00000000E+00  0.00000000E+00  0.00000000E+00
  0.00000000E+00  0.00000000E+00  0.00000000E+00
  0.00000000E+00  0.00000000E+00  0.00000000E+00
  0.00000000E+00  0.00000000E+00  0.00000000E+00
  0.00000000E+00  0.00000000E+00  0.00000000E+00
  0.00000000E+00  0.00000000E+00  0.00000000E+00
  0.00000000E+00  0.00000000E+00  0.00000000E+00
  0.00000000E+00  0.00000000E+00  0.00000000E+00
  0.00000000E+00  0.00000000E+00  0.00000000E+00
  0.00000000E+00  0.00000000E+00  0.00000000E+00
  0.00000000E+00  0.00000000E+00  0.00000000E+00
  0.00000000E+00  0.00000000E+00  0.00000000E+00
  0.00000000E+00  0.00000000E+00  0.00000000E+00
  0.00000000E+00  0.00000000E+00  0.00000000E+00
  0.00000000E+00  0.00000000E+00  0.00000000E+00
  0.00000000E+00  0.00000000E+00  0.00000000E+00
  0.00000000E+00  0.00000000E+00  0.00000000E+00
  0.00000000E+00  0.00000000E+00  0.00000000E+00
  0.00000000E+00  0.00000000E+00  0.00000000E+00
  0.00000000E+00  0.00000000E+00  0.00000000E+00
  0.00000000E+00  0.00000000E+00  0.00000000E+00
  0.00000000E+00  0.00000000E+00  0.00000000E+00
  0.00000000E+00  0.00000000E+00  0.00000000E+00
  0.00000000E+00  0.00000000E+00  0.00000000E+00
  0.00000000E+00  0.00000000E+00  0.00000000E+00
  0.00000000E+00  0.00000000E+00  0.00000000E+00
  0.00000000E+00  0.00000000E+00  0.00000000E+00
  0.00000000E+00  0.00000000E+00  0.00000000E+00
  0.00000000E+00  0.00000000E+00  0.00000000E+00
  0.00000000E+00  0.00000000E+00  0.00000000E+00
  0.00000000E+00  0.00000000E+00  0.00000000E+00
  0.00000000E+00  0.00000000E+00  0.00000000E+00
  0.00000000E+00  0.00000000E+00  0.00000000E+00
  0.00000000E+00  0.00000000E+00  0.00000000E+00
  0.00000000E+00  0.00000000E+00  0.00000000E+00
  0.00000000E+00  0.00000000E+00  0.00000000E+00
  0.00000000E+00  0.00000000E+00  0.00000000E+00
  0.00000000E+00  0.00000000E+00  0.00000000E+00
  0.00000000E+00  0.00000000E+00  0.00000000E+00
  0.00000000E+00  0.00000000E+00  0.00000000E+00
  0.00000000E+00  0.00000000E+00  0.00000000E+00
  0.00000000E+00  0.00000000E+00  0.00000000E+00
  0.00000000E+00  0.00000000E+00  0.00000000E+00
  0.00000000E+00  0.00000000E+00  0.00000000E+00
  0.00000000E+00  0.00000000E+00  0.00000000E+00
  0.00000000E+00  0.00000000E+00  0.00000000E+00
  0.00000000E+00  0.00000000E+00  0.00000000E+00
  0.00000000E+00  0.00000000E+00  0.00000000E+00
  0.00000000E+00  0.00000000E+00  0.00000000E+00
  0.00000000E+00  0.00000000E+00  0.00000000E+00
  0.00000000E+00  0.00000000E+00  0.00000000E+00
  0.00000000E+00  0.00000000E+00  0.00000000E+00
  0.00000000E+00  0.00000000E+00  0.00000000E+00
  0.00000000E+00  0.00000000E+00  0.00000000E+00
  0.00000000E+00  0.00000000E+00  0.00000000E+00
  0.00000000E+00  0.00000000E+00  0.00000000E+00
  0.00000000E+00  0.00000000E+00  0.00000000E+00
  0.00000000E+00  0.00000000E+00  0.00000000E+00
  0.00000000E+00  0.00000000E+00  0.00000000E+00
  0.00000000E+00  0.00000000E+00  0.00000000E+00
  0.00000000E+00  0.00000000E+00  0.00000000E+00
  0.00000000E+00  0.00000000E+00  0.00000000E+00
  0.00000000E+00  0.00000000E+00  0.00000000E+00
  0.00000000E+00  0.00000000E+00  0.00000000E+00
  0.00000000E+00  0.00000000E+00  0.00000000E+00
  0.00000000E+00  0.00000000E+00  0.00000000E+00
  0.00000000E+00  0.00000000E+00  0.00000000E+00
  0.00000000E+00  0.00000000E+00  0.00000000E+00
  0.00000000E+00  0.00000000E+00  0.00000000E+00
  0.00000000E+00  0.00000000E+00  0.00000000E+00
  0.00000000E+00  0.00000000E+00  0.00000000E+00
  0.00000000E+00  0.00000000E+00  0.00000000E+00
  0.00000000E+00  0.00000000E+00  0.00000000E+00
  0.00000000E+00  0.00000000E+00  0.00000000E+00
  0.00000000E+00  0.00000000E+00  0.00000000E+00
  0.00000000E+00  0.00000000E+00  0.00000000E+00
  0.00000000E+00  0.00000000E+00  0.00000000E+00
  0.00000000E+00  0.00000000E+00  0.00000000E+00
  0.00000000E+00  0.00000000E+00  0.00000000E+00
  0.00000000E+00  0.00000000E+00  0.00000000E+00
  0.00000000E+00  0.00000000E+00  0.00000000E+00
  0.00000000E+00  0.00000000E+00  0.00000000E+00
  0.00000000E+00  0.00000000E+00  0.00000000E+00
  0.00000000E+00  0.00000000E+00  0.00000000E+00
  0.00000000E+00  0.00000000E+00  0.00000000E+00
  0.00000000E+00  0.00000000E+00  0.00000000E+00
  0.00000000E+00  0.00000000E+00  0.00000000E+00
  0.00000000E+00  0.00000000E+00  0.00000000E+00
  0.00000000E+00  0.00000000E+00  0.00000000E+00
  0.00000000E+00  0.00000000E+00  0.00000000E+00
  0.00000000E+00  0.00000000E+00  0.00000000E+00
  0.00000000E+00  0.00000000E+00  0.00000000E+00
  0.00000000E+00  0.00000000E+00  0.00000000E+00
  0.00000000E+00  0.00000000E+00  0.00000000E+00
  0.00000000E+00  0.00000000E+00  0.00000000E+00
  0.00000000E+00  0.00000000E+00  0.00000000E+00
  0.00000000E+00  0.00000000E+00  0.00000000E+00
  0.00000000E+00  0.00000000E+00  0.00000000E+00
  0.00000000E+00  0.00000000E+00  0.00000000E+00
  0.00000000E+00  0.00000000E+00  0.00000000E+00
  0.00000000E+00  0.00000000E+00  0.00000000E+00
  0.00000000E+00  0.00000000E+00  0.00000000E+00
  0.00000000E+00  0.00000000E+00  0.00000000E+00
  0.00000000E+00  0.00000000E+00  0.00000000E+00
  0.00000000E+00  0.00000000E+00  0.00000000E+00
  0.00000000E+00  0.00000000E+00  0.00000000E+00
  0.00000000E+00  0.00000000E+00  0.00000000E+00
  0.00000000E+00  0.00000000E+00  0.00000000E+00
  0.00000000E+00  0.00000000E+00  0.00000000E+00
  0.00000000E+00  0.00000000E+00  0.00000000E+00
  0.00000000E+00  0.00000000E+00  0.00000000E+00
  0.00000000E+00  0.00000000E+00  0.00000000E+00
  0.00000000E+00  0.00000000E+00  0.00000000E+00
  0.00000000E+00  0.00000000E+00  0.00000000E+00
  0.00000000E+00  0.00000000E+00  0.00000000E+00
  0.00000000E+00  0.00000000E+00  0.00000000E+00
  0.00000000E+00  0.00000000E+00  0.00000000E+00
  0.00000000E+00  0.00000000E+00  0.00000000E+00
  0.00000000E+00  0.00000000E+00  0.00000000E+00
  0.00000000E+00  0.00000000E+00  0.00000000E+00
  0.00000000E+00  0.00000000E+00  0.00000000E+00
  0.00000000E+00  0.00000000E+00  0.00000000E+00
  0.00000000E+00  0.00000000E+00  0.00000000E+00
  0.00000000E+00  0.00000000E+00  0.00000000E+00
  0.00000000E+00  0.00000000E+00  0.00000000E+00
  0.00000000E+00  0.00000000E+00  0.00000000E+00
  0.00000000E+00  0.00000000E+00  0.00000000E+00
  0.00000000E+00  0.00000000E+00  0.00000000E+00
  0.00000000E+00  0.00000000E+00  0.00000000E+00
  0.00000000E+00  0.00000000E+00  0.00000000E+00
  0.00000000E+00  0.00000000E+00  0.00000000E+00
  0.00000000E+00  0.00000000E+00  0.00000000E+00
  0.00000000E+00  0.00000000E+00  0.00000000E+00
  0.00000000E+00  0.00000000E+00  0.00000000E+00
  0.00000000E+00  0.00000000E+00  0.00000000E+00
  0.00000000E+00  0.00000000E+00  0.00000000E+00
  0.00000000E+00  0.00000000E+00  0.00000000E+00
  0.00000000E+00  0.00000000E+00  0.00000000E+00
  0.00000000E+00  0.00000000E+00  0.00000000E+00
  0.00000000E+00  0.00000000E+00  0.00000000E+00
  0.00000000E+00  0.00000000E+00  0.00000000E+00
  0.00000000E+00  0.00000000E+00  0.00000000E+00
  0.00000000E+00  0.00000000E+00  0.00000000E+00
  0.00000000E+00  0.00000000E+00  0.00000000E+00
  0.00000000E+00  0.00000000E+00  0.00000000E+00
  0.00000000E+00  0.00000000E+00  0.00000000E+00
  0.00000000E+00  0.00000000E+00  0.00000000E+00
  0.00000000E+00  0.00000000E+00  0.00000000E+00
  0.00000000E+00  0.00000000E+00  0.00000000E+00
  0.00000000E+00  0.00000000E+00  0.00000000E+00
  0.00000000E+00  0.00000000E+00  0.00000000E+00
  0.00000000E+00  0.00000000E+00  0.00000000E+00
  0.00000000E+00  0.00000000E+00  0.00000000E+00
  0.00000000E+00  0.00000000E+00  0.00000000E+00
  0.00000000E+00  0.00000000E+00  0.00000000E+00
  0.00000000E+00  0.00000000E+00  0.00000000E+00
  0.00000000E+00  0.00000000E+00  0.00000000E+00
  0.00000000E+00  0.00000000E+00  0.00000000E+00
  0.00000000E+00  0.00000000E+00  0.00000000E+00
  0.00000000E+00  0.00000000E+00  0.00000000E+00
  0.00000000E+00  0.00000000E+00  0.00000000E+00
  0.00000000E+00  0.00000000E+00  0.00000000E+00
  0.00000000E+00  0.00000000E+00  0.00000000E+00
  0.00000000E+00  0.00000000E+00  0.00000000E+00
  0.00000000E+00  0.00000000E+00  0.00000000E+00
  0.00000000E+00  0.00000000E+00  0.00000000E+00
  0.00000000E+00  0.00000000E+00  0.00000000E+00
