In54 Cu42 Ag12 Se108                    
   1.0000000000000000     
    16.2625202886937466   -0.0632342195933328   -7.2691498268993913
    -3.1869327978571969   15.9471060131786579   -7.2694912930295361
     0.0242499702791040    0.0302183625363550   21.8922107718609062
   In   Cu   Ag   Se
    54    42    12   108
Direct
  0.1669163593802097  0.5036101322870010  0.0032478527579087
  0.4993177625389222  0.4991460925176341  0.0018401643332737
  0.8368257276325721  0.4984091340105365  0.9990751475846125
  0.1665229603865939  0.8339120520123586  0.0015981054989851
  0.5018795909024618  0.8365530680032620  0.0022852652909862
  0.8331710313770415  0.8355508036058410  0.0001120643232042
  0.1633597437363150  0.1648684648271725  0.9996837703067598
  0.5051470346736480  0.1656065352234464  0.0008581718866907
  0.8319174543511423  0.1655373258915773  0.0009258401663388
  0.1658270620245688  0.4987913507757185  0.3325472082365408
  0.5011805938697833  0.5005215643619110  0.3343446303575348
  0.8339975473196901  0.4979164475794136  0.3359423025984114
  0.1707836432464376  0.8322406152575752  0.3350099629113927
  0.4995040146400527  0.8337769642645583  0.3338150713536265
  0.8306291348284631  0.8354667086949306  0.3335168403682545
  0.1677758474063253  0.1707531402978901  0.3362466522058085
  0.5008536054692385  0.1665268546936716  0.3329903995032950
  0.8326474826041164  0.1693363643409356  0.3336427072455734
  0.1621283417198427  0.5002668338596266  0.6623521824026994
  0.5040359319000842  0.5010083241283567  0.6656083806124684
  0.8304378223056901  0.4998380424862674  0.6637030207723456
  0.1656156490549066  0.8265092447576734  0.6668491062473123
  0.5022786496469251  0.8309371191846253  0.6643038002538333
  0.8284824668243260  0.8298244544318294  0.6646014288225146
  0.1670307421443553  0.1719782082641501  0.6665408694733657
  0.5024326332601063  0.1637431815662751  0.6634307576265073
  0.8293292166208914  0.1676255584917143  0.6648948914007278
  0.2516560088409676  0.4167356728919813  0.1701570619502064
  0.5853300194695663  0.4152523579221139  0.1691622060964306
  0.9171562561495179  0.4144068778786831  0.1675463920958435
  0.2517747156145234  0.7493422980705802  0.1676691294496706
  0.5810553286348323  0.7526597890225020  0.1686404025664388
  0.9212976218624007  0.7534111002955513  0.1719867114468130
  0.2504041266629713  0.0871733163660977  0.1696082373038550
  0.5861571826251080  0.0856729331509669  0.1687641031065539
  0.9147409605508656  0.0863122717361335  0.1669422137173697
  0.2505155899038627  0.4192684573636782  0.4990708395717078
  0.5827193126620003  0.4159592570215480  0.4979607563265063
  0.9154038887815688  0.4165182476394875  0.5001883297743532
  0.2533684805329486  0.7447118218170701  0.4989415357094487
  0.5823154863626456  0.7491798277666888  0.4994334010690551
  0.9134345144232014  0.7458082196093514  0.4977772680591102
  0.2506561886185921  0.0835838091759200  0.4966070740226769
  0.5842859682772925  0.0833576738700259  0.4993883262011209
  0.9119177598398238  0.0871965476666787  0.4986799769598420
  0.2470147499427426  0.4164554218687897  0.8338804564542741
  0.5881464049876257  0.4131494210518625  0.8326955247512871
  0.9139440881510410  0.4147203110291073  0.8300564756897799
  0.2502607003777797  0.7503766899973385  0.8327133544365140
  0.5839497208049877  0.7528570802398562  0.8312075737005031
  0.9138578160082602  0.7513762902490058  0.8332982929178172
  0.2495486448023172  0.0821670158724928  0.8326408813547985
  0.5862242647811371  0.0822551716285247  0.8330987514832628
  0.9130439056545896  0.0811856774137993  0.8319038503085068
  0.6658339288741288  0.3291510396095561  0.9971027844282716
  0.9939487541570386  0.6651307670413260  0.0006860416402787
  0.3366928011148715  0.6711595851617034  0.0069699707739872
  0.9983683717229681  0.0015543132055100  0.9970940183551704
  0.6677008864825922  0.9996328555279561  0.0002716352236689
  0.9999387224629501  0.3347200503736119  0.3339347088774360
  0.3337456123321019  0.3339176993434450  0.3340074733700291
  0.6667434483259740  0.3334940959068362  0.3337867067691533
  0.0016865711942415  0.6617255683105228  0.3340507891865911
  0.3334860352012612  0.6644868167074662  0.3329300230648968
  0.6654357852511055  0.6694459646457958  0.3366954179758181
  0.9991040564563534  0.0054456266054217  0.3340716069544811
  0.3375640701059837  0.0006791735698428  0.3360548624308706
  0.6660798705429585  0.0011486783509511  0.3327012422266051
  0.9962474073693599  0.3306043297893169  0.6632993125832485
  0.6663770720671209  0.3341562833782064  0.6651219197942169
  0.9968103214010497  0.6678408220754903  0.6639370125107007
  0.3343576668544372  0.6669726179759152  0.6633973758480636
  0.6665368896928996  0.6656276897188889  0.6656055879797336
  0.6666232437174173  0.9981722639174180  0.6651725851073493
  0.0844681835180268  0.5873879051522906  0.1704153305994396
  0.4184654949014615  0.5861349772298183  0.1706649655673544
  0.4188398154069333  0.9175241927003626  0.1704257475899453
  0.7499081673542918  0.9231920197868888  0.1707456030911843
  0.0865333948291109  0.2472253481849052  0.1704564765966623
  0.4189552705035950  0.2524196040174189  0.1715603824540111
  0.7497231616341864  0.2513142953053347  0.1671315243977176
  0.0825059902036571  0.5821522167687405  0.4994572771377008
  0.4176723702624443  0.5815302748135096  0.4993449555371399
  0.7482376017553847  0.5818365098473706  0.4991681036856406
  0.4192373264721709  0.9152151295227142  0.4963069617705358
  0.7441220005741371  0.9138734592653819  0.4963481001271646
  0.0783576884592634  0.2488023513322375  0.4969025862660672
  0.4194757418932937  0.2509617767317778  0.4962596880646402
  0.7486050735559502  0.2514526994991542  0.4995195578463552
  0.7519755440761173  0.5836900876483853  0.8300693244332322
  0.0804227896013927  0.9123608772739402  0.8336160451169263
  0.4219374788988830  0.9150201556091773  0.8324981485877530
  0.7491631490907693  0.9169256967307788  0.8327002557576435
  0.0784212286702584  0.2498853456542776  0.8293613654687135
  0.4229459163918960  0.2525420541521939  0.8368136900213088
  0.7457485805593862  0.2454415338002107  0.8291703538875268
  0.0001800515842518  0.3332797277150235  0.0015981490307979
  0.3318678777525292  0.3314566510139727  0.9990303827432996
  0.6761618943586001  0.6691760897222423  0.0016254389037442
  0.3333105907006484  0.0004748917698194  0.0012598960177002
  0.3304058534610377  0.3296212378347860  0.6627247889162931
  0.9959107789117283  0.0028292531238137  0.6682626043427362
  0.3378528217081822  0.9972099235826164  0.6690615981332328
  0.7531967796675687  0.5803985249831740  0.1692504029822501
  0.0843076392799702  0.9180548203749055  0.1667571794451561
  0.0809199182987541  0.9145382650178604  0.4954034629179347
  0.0834940273904721  0.5844637907824932  0.8343776913733336
  0.4121846635893434  0.5830065511318736  0.8340769771489107
  0.1227777498374678  0.4669726702682979  0.0916726809733177
  0.4554486805910329  0.4648253522472388  0.0913132356486912
  0.7843480723998297  0.4484442946820693  0.0768017473510980
  0.1154180106827241  0.7812637111622678  0.0783256628073943
  0.4488595868353400  0.7954374730342977  0.0852992812796955
  0.7935550055867395  0.8052220834158419  0.0938241527962589
  0.1134959990101905  0.1238665253611657  0.0838716865207090
  0.4566127788712606  0.1344283101052497  0.0896364525621891
  0.7786813968861637  0.1259864439436740  0.0838421437070025
  0.1139992800266469  0.4588869131316926  0.4160166726061618
  0.4479551926907845  0.4577025021699228  0.4159117164496493
  0.7803467711961218  0.4574026838398453  0.4180282806182518
  0.1198846807177247  0.7809197526299272  0.4122769166157312
  0.4476414816783958  0.7889946988308409  0.4147012498134330
  0.7805858619036812  0.7920269429516082  0.4166942021931703
  0.1147671463212916  0.1269600449854877  0.4170731836977311
  0.4503974585890091  0.1250762992571666  0.4162506687524825
  0.7778180463521736  0.1277728241763540  0.4148919301840976
  0.1145182088868211  0.4503162045466951  0.7425887762184402
  0.4595697574506303  0.4580165780282357  0.7499508201263367
  0.7806108032436399  0.4581930307941988  0.7470866310479281
  0.1124096628288669  0.7895562404818151  0.7509508001236966
  0.4482308754777833  0.7910158330879824  0.7463435975505774
  0.7781442175147077  0.7912988689688945  0.7496910198786964
  0.1217314066175845  0.1329773966698298  0.7531143569563099
  0.4582002890786541  0.1333145488664655  0.7546483546727174
  0.7796605703111155  0.1230306837171113  0.7477192698319897
  0.3044810272832663  0.6254559316207136  0.0861544202989464
  0.6273113544841422  0.6270440653557330  0.0844034184673603
  0.9689758443062502  0.6263513831738763  0.0867330703622571
  0.3002331824607722  0.9577817482136979  0.0915892601929684
  0.6366194771497007  0.9610541349406532  0.0847585472812611
  0.9620031978856360  0.9641299920784832  0.0786208380105009
  0.2989646485154438  0.2872514911407436  0.0890687301783402
  0.6373230178199378  0.2931909050220440  0.0836396169786653
  0.9683142398432807  0.2861470179715582  0.0900386768395265
  0.3032393084020413  0.6203024613224741  0.4146963557583945
  0.6352573501184153  0.6253883168346448  0.4179438200179320
  0.9679791332136887  0.6227485701926341  0.4163632145536624
  0.3038475351217969  0.9576892942831705  0.4165449396851741
  0.6336201176994365  0.9582540740833565  0.4144741812114390
  0.9586999656923325  0.9643937686704973  0.4118635845551424
  0.3033222122385766  0.2942765608776625  0.4178344415434623
  0.6349716112615980  0.2917130500954173  0.4158822661680119
  0.9670400382531383  0.2931730232289027  0.4159606245716105
  0.2928661133836528  0.6264283438623863  0.7415857993192319
  0.6371540249843903  0.6268578259845583  0.7500669793152497
  0.9597524611001091  0.6283922301045806  0.7444106802516757
  0.2987821634515910  0.9516708244595833  0.7545025061869097
  0.6357790399329062  0.9571487680083237  0.7483320882026803
  0.9626911250361019  0.9519650758451093  0.7539545061661670
  0.3035995223912238  0.2921393009158706  0.7581094423166164
  0.6359273827917562  0.2888175923868488  0.7461637159595540
  0.9653561718395309  0.2902884027493471  0.7465151408911410
  0.2082060117035880  0.3634768736357117  0.2513061052946739
  0.5423970643396316  0.3651595405820487  0.2521596479468968
  0.8745899755854651  0.3645278909299776  0.2510743116618954
  0.2105341519345814  0.6981427099402850  0.2509861146349408
  0.5423018291035362  0.6998430127210469  0.2523215010467723
  0.8839471145086719  0.7062116933596201  0.2584505802587742
  0.2177113594204769  0.0412457935026325  0.2586650977764080
  0.5420532325056442  0.0320541973108632  0.2496789687018435
  0.8750856278529682  0.0353436842779473  0.2511116641121092
  0.1986435367032726  0.3664999549098624  0.5753524575401201
  0.5426855782640558  0.3649084714107858  0.5816412275076814
  0.8734120114353630  0.3646159675815355  0.5826884371671568
  0.2082416409545758  0.6949519070254908  0.5811951211599933
  0.5423817049824606  0.6952244848951494  0.5818167543818475
  0.8712612257737575  0.6963406835822994  0.5813011165007822
  0.2100892526450338  0.0419699007939229  0.5835267979533256
  0.5432755017586004  0.0283366361850668  0.5810783351987325
  0.8631833607559898  0.0331779462701860  0.5758994746189430
  0.1969519040604411  0.3674490747943651  0.9129957307324901
  0.5444901052106559  0.3673212444606619  0.9184754828448689
  0.8665672422055053  0.3622104118169815  0.9085111781804684
  0.2184240390838070  0.7062506856506019  0.9232625282422262
  0.5438042303417063  0.7083019468751317  0.9167566367805833
  0.8740618260952004  0.6992819973878568  0.9173842480847227
  0.1987099527133935  0.0316289209683234  0.9109006214317148
  0.5441923692465735  0.0299405419392400  0.9159930523416477
  0.8727421932298398  0.0317281204285962  0.9161311755344954
  0.0407955662132551  0.5497436400481206  0.2489127715585084
  0.3763821184307474  0.5512964965012870  0.2511507058773290
  0.7069966827221208  0.5504611764557055  0.2589976113530810
  0.0441397222285502  0.8872793676572002  0.2596769379494859
  0.3750891383507025  0.8855127083868908  0.2512249942717943
  0.7065428608581072  0.8864595709070002  0.2496832581438326
  0.0417846143032747  0.2195542238654227  0.2523655649853112
  0.3763625307657463  0.2202197002959920  0.2522046964482740
  0.7090412552884047  0.2211721176530332  0.2507305826176420
  0.0375380916029187  0.5530805468185704  0.5814703349829671
  0.3771824431649833  0.5522984992637632  0.5834309404533116
  0.7058818835874661  0.5513949672237928  0.5814091936025179
  0.0408150513814434  0.8745837484351071  0.5835815921969782
  0.3790077894927393  0.8762926163500708  0.5758399731709716
  0.7067144312242206  0.8840235762294668  0.5816511261544335
  0.0394771564901575  0.2192308818909510  0.5814004092582934
  0.3799709497719235  0.2108328147539282  0.5752327073093042
  0.7064751549538357  0.2200561150524010  0.5817911312902311
  0.0360338047760251  0.5496378185967572  0.9217689637373780
  0.3704295330143168  0.5502513592955651  0.9240600216342685
  0.7143603448285987  0.5444504797207230  0.9106868763531963
  0.0410757623426008  0.8847553093065912  0.9183467343706937
  0.3789470263016099  0.8795727497533647  0.9116030392804859
  0.7087488774975199  0.8868725519607565  0.9163859728689516
  0.0415667743435364  0.2102701276193955  0.9095820892597146
  0.3802691659851050  0.2096714901511731  0.9124042350403414
  0.7096398335877723  0.2171093640673263  0.9157599998015584

  0.00000000E+00  0.00000000E+00  0.00000000E+00
  0.00000000E+00  0.00000000E+00  0.00000000E+00
  0.00000000E+00  0.00000000E+00  0.00000000E+00
  0.00000000E+00  0.00000000E+00  0.00000000E+00
  0.00000000E+00  0.00000000E+00  0.00000000E+00
  0.00000000E+00  0.00000000E+00  0.00000000E+00
  0.00000000E+00  0.00000000E+00  0.00000000E+00
  0.00000000E+00  0.00000000E+00  0.00000000E+00
  0.00000000E+00  0.00000000E+00  0.00000000E+00
  0.00000000E+00  0.00000000E+00  0.00000000E+00
  0.00000000E+00  0.00000000E+00  0.00000000E+00
  0.00000000E+00  0.00000000E+00  0.00000000E+00
  0.00000000E+00  0.00000000E+00  0.00000000E+00
  0.00000000E+00  0.00000000E+00  0.00000000E+00
  0.00000000E+00  0.00000000E+00  0.00000000E+00
  0.00000000E+00  0.00000000E+00  0.00000000E+00
  0.00000000E+00  0.00000000E+00  0.00000000E+00
  0.00000000E+00  0.00000000E+00  0.00000000E+00
  0.00000000E+00  0.00000000E+00  0.00000000E+00
  0.00000000E+00  0.00000000E+00  0.00000000E+00
  0.00000000E+00  0.00000000E+00  0.00000000E+00
  0.00000000E+00  0.00000000E+00  0.00000000E+00
  0.00000000E+00  0.00000000E+00  0.00000000E+00
  0.00000000E+00  0.00000000E+00  0.00000000E+00
  0.00000000E+00  0.00000000E+00  0.00000000E+00
  0.00000000E+00  0.00000000E+00  0.00000000E+00
  0.00000000E+00  0.00000000E+00  0.00000000E+00
  0.00000000E+00  0.00000000E+00  0.00000000E+00
  0.00000000E+00  0.00000000E+00  0.00000000E+00
  0.00000000E+00  0.00000000E+00  0.00000000E+00
  0.00000000E+00  0.00000000E+00  0.00000000E+00
  0.00000000E+00  0.00000000E+00  0.00000000E+00
  0.00000000E+00  0.00000000E+00  0.00000000E+00
  0.00000000E+00  0.00000000E+00  0.00000000E+00
  0.00000000E+00  0.00000000E+00  0.00000000E+00
  0.00000000E+00  0.00000000E+00  0.00000000E+00
  0.00000000E+00  0.00000000E+00  0.00000000E+00
  0.00000000E+00  0.00000000E+00  0.00000000E+00
  0.00000000E+00  0.00000000E+00  0.00000000E+00
  0.00000000E+00  0.00000000E+00  0.00000000E+00
  0.00000000E+00  0.00000000E+00  0.00000000E+00
  0.00000000E+00  0.00000000E+00  0.00000000E+00
  0.00000000E+00  0.00000000E+00  0.00000000E+00
  0.00000000E+00  0.00000000E+00  0.00000000E+00
  0.00000000E+00  0.00000000E+00  0.00000000E+00
  0.00000000E+00  0.00000000E+00  0.00000000E+00
  0.00000000E+00  0.00000000E+00  0.00000000E+00
  0.00000000E+00  0.00000000E+00  0.00000000E+00
  0.00000000E+00  0.00000000E+00  0.00000000E+00
  0.00000000E+00  0.00000000E+00  0.00000000E+00
  0.00000000E+00  0.00000000E+00  0.00000000E+00
  0.00000000E+00  0.00000000E+00  0.00000000E+00
  0.00000000E+00  0.00000000E+00  0.00000000E+00
  0.00000000E+00  0.00000000E+00  0.00000000E+00
  0.00000000E+00  0.00000000E+00  0.00000000E+00
  0.00000000E+00  0.00000000E+00  0.00000000E+00
  0.00000000E+00  0.00000000E+00  0.00000000E+00
  0.00000000E+00  0.00000000E+00  0.00000000E+00
  0.00000000E+00  0.00000000E+00  0.00000000E+00
  0.00000000E+00  0.00000000E+00  0.00000000E+00
  0.00000000E+00  0.00000000E+00  0.00000000E+00
  0.00000000E+00  0.00000000E+00  0.00000000E+00
  0.00000000E+00  0.00000000E+00  0.00000000E+00
  0.00000000E+00  0.00000000E+00  0.00000000E+00
  0.00000000E+00  0.00000000E+00  0.00000000E+00
  0.00000000E+00  0.00000000E+00  0.00000000E+00
  0.00000000E+00  0.00000000E+00  0.00000000E+00
  0.00000000E+00  0.00000000E+00  0.00000000E+00
  0.00000000E+00  0.00000000E+00  0.00000000E+00
  0.00000000E+00  0.00000000E+00  0.00000000E+00
  0.00000000E+00  0.00000000E+00  0.00000000E+00
  0.00000000E+00  0.00000000E+00  0.00000000E+00
  0.00000000E+00  0.00000000E+00  0.00000000E+00
  0.00000000E+00  0.00000000E+00  0.00000000E+00
  0.00000000E+00  0.00000000E+00  0.00000000E+00
  0.00000000E+00  0.00000000E+00  0.00000000E+00
  0.00000000E+00  0.00000000E+00  0.00000000E+00
  0.00000000E+00  0.00000000E+00  0.00000000E+00
  0.00000000E+00  0.00000000E+00  0.00000000E+00
  0.00000000E+00  0.00000000E+00  0.00000000E+00
  0.00000000E+00  0.00000000E+00  0.00000000E+00
  0.00000000E+00  0.00000000E+00  0.00000000E+00
  0.00000000E+00  0.00000000E+00  0.00000000E+00
  0.00000000E+00  0.00000000E+00  0.00000000E+00
  0.00000000E+00  0.00000000E+00  0.00000000E+00
  0.00000000E+00  0.00000000E+00  0.00000000E+00
  0.00000000E+00  0.00000000E+00  0.00000000E+00
  0.00000000E+00  0.00000000E+00  0.00000000E+00
  0.00000000E+00  0.00000000E+00  0.00000000E+00
  0.00000000E+00  0.00000000E+00  0.00000000E+00
  0.00000000E+00  0.00000000E+00  0.00000000E+00
  0.00000000E+00  0.00000000E+00  0.00000000E+00
  0.00000000E+00  0.00000000E+00  0.00000000E+00
  0.00000000E+00  0.00000000E+00  0.00000000E+00
  0.00000000E+00  0.00000000E+00  0.00000000E+00
  0.00000000E+00  0.00000000E+00  0.00000000E+00
  0.00000000E+00  0.00000000E+00  0.00000000E+00
  0.00000000E+00  0.00000000E+00  0.00000000E+00
  0.00000000E+00  0.00000000E+00  0.00000000E+00
  0.00000000E+00  0.00000000E+00  0.00000000E+00
  0.00000000E+00  0.00000000E+00  0.00000000E+00
  0.00000000E+00  0.00000000E+00  0.00000000E+00
  0.00000000E+00  0.00000000E+00  0.00000000E+00
  0.00000000E+00  0.00000000E+00  0.00000000E+00
  0.00000000E+00  0.00000000E+00  0.00000000E+00
  0.00000000E+00  0.00000000E+00  0.00000000E+00
  0.00000000E+00  0.00000000E+00  0.00000000E+00
  0.00000000E+00  0.00000000E+00  0.00000000E+00
  0.00000000E+00  0.00000000E+00  0.00000000E+00
  0.00000000E+00  0.00000000E+00  0.00000000E+00
  0.00000000E+00  0.00000000E+00  0.00000000E+00
  0.00000000E+00  0.00000000E+00  0.00000000E+00
  0.00000000E+00  0.00000000E+00  0.00000000E+00
  0.00000000E+00  0.00000000E+00  0.00000000E+00
  0.00000000E+00  0.00000000E+00  0.00000000E+00
  0.00000000E+00  0.00000000E+00  0.00000000E+00
  0.00000000E+00  0.00000000E+00  0.00000000E+00
  0.00000000E+00  0.00000000E+00  0.00000000E+00
  0.00000000E+00  0.00000000E+00  0.00000000E+00
  0.00000000E+00  0.00000000E+00  0.00000000E+00
  0.00000000E+00  0.00000000E+00  0.00000000E+00
  0.00000000E+00  0.00000000E+00  0.00000000E+00
  0.00000000E+00  0.00000000E+00  0.00000000E+00
  0.00000000E+00  0.00000000E+00  0.00000000E+00
  0.00000000E+00  0.00000000E+00  0.00000000E+00
  0.00000000E+00  0.00000000E+00  0.00000000E+00
  0.00000000E+00  0.00000000E+00  0.00000000E+00
  0.00000000E+00  0.00000000E+00  0.00000000E+00
  0.00000000E+00  0.00000000E+00  0.00000000E+00
  0.00000000E+00  0.00000000E+00  0.00000000E+00
  0.00000000E+00  0.00000000E+00  0.00000000E+00
  0.00000000E+00  0.00000000E+00  0.00000000E+00
  0.00000000E+00  0.00000000E+00  0.00000000E+00
  0.00000000E+00  0.00000000E+00  0.00000000E+00
  0.00000000E+00  0.00000000E+00  0.00000000E+00
  0.00000000E+00  0.00000000E+00  0.00000000E+00
  0.00000000E+00  0.00000000E+00  0.00000000E+00
  0.00000000E+00  0.00000000E+00  0.00000000E+00
  0.00000000E+00  0.00000000E+00  0.00000000E+00
  0.00000000E+00  0.00000000E+00  0.00000000E+00
  0.00000000E+00  0.00000000E+00  0.00000000E+00
  0.00000000E+00  0.00000000E+00  0.00000000E+00
  0.00000000E+00  0.00000000E+00  0.00000000E+00
  0.00000000E+00  0.00000000E+00  0.00000000E+00
  0.00000000E+00  0.00000000E+00  0.00000000E+00
  0.00000000E+00  0.00000000E+00  0.00000000E+00
  0.00000000E+00  0.00000000E+00  0.00000000E+00
  0.00000000E+00  0.00000000E+00  0.00000000E+00
  0.00000000E+00  0.00000000E+00  0.00000000E+00
  0.00000000E+00  0.00000000E+00  0.00000000E+00
  0.00000000E+00  0.00000000E+00  0.00000000E+00
  0.00000000E+00  0.00000000E+00  0.00000000E+00
  0.00000000E+00  0.00000000E+00  0.00000000E+00
  0.00000000E+00  0.00000000E+00  0.00000000E+00
  0.00000000E+00  0.00000000E+00  0.00000000E+00
  0.00000000E+00  0.00000000E+00  0.00000000E+00
  0.00000000E+00  0.00000000E+00  0.00000000E+00
  0.00000000E+00  0.00000000E+00  0.00000000E+00
  0.00000000E+00  0.00000000E+00  0.00000000E+00
  0.00000000E+00  0.00000000E+00  0.00000000E+00
  0.00000000E+00  0.00000000E+00  0.00000000E+00
  0.00000000E+00  0.00000000E+00  0.00000000E+00
  0.00000000E+00  0.00000000E+00  0.00000000E+00
  0.00000000E+00  0.00000000E+00  0.00000000E+00
  0.00000000E+00  0.00000000E+00  0.00000000E+00
  0.00000000E+00  0.00000000E+00  0.00000000E+00
  0.00000000E+00  0.00000000E+00  0.00000000E+00
  0.00000000E+00  0.00000000E+00  0.00000000E+00
  0.00000000E+00  0.00000000E+00  0.00000000E+00
  0.00000000E+00  0.00000000E+00  0.00000000E+00
  0.00000000E+00  0.00000000E+00  0.00000000E+00
  0.00000000E+00  0.00000000E+00  0.00000000E+00
  0.00000000E+00  0.00000000E+00  0.00000000E+00
  0.00000000E+00  0.00000000E+00  0.00000000E+00
  0.00000000E+00  0.00000000E+00  0.00000000E+00
  0.00000000E+00  0.00000000E+00  0.00000000E+00
  0.00000000E+00  0.00000000E+00  0.00000000E+00
  0.00000000E+00  0.00000000E+00  0.00000000E+00
  0.00000000E+00  0.00000000E+00  0.00000000E+00
  0.00000000E+00  0.00000000E+00  0.00000000E+00
  0.00000000E+00  0.00000000E+00  0.00000000E+00
  0.00000000E+00  0.00000000E+00  0.00000000E+00
  0.00000000E+00  0.00000000E+00  0.00000000E+00
  0.00000000E+00  0.00000000E+00  0.00000000E+00
  0.00000000E+00  0.00000000E+00  0.00000000E+00
  0.00000000E+00  0.00000000E+00  0.00000000E+00
  0.00000000E+00  0.00000000E+00  0.00000000E+00
  0.00000000E+00  0.00000000E+00  0.00000000E+00
  0.00000000E+00  0.00000000E+00  0.00000000E+00
  0.00000000E+00  0.00000000E+00  0.00000000E+00
  0.00000000E+00  0.00000000E+00  0.00000000E+00
  0.00000000E+00  0.00000000E+00  0.00000000E+00
  0.00000000E+00  0.00000000E+00  0.00000000E+00
  0.00000000E+00  0.00000000E+00  0.00000000E+00
  0.00000000E+00  0.00000000E+00  0.00000000E+00
  0.00000000E+00  0.00000000E+00  0.00000000E+00
  0.00000000E+00  0.00000000E+00  0.00000000E+00
  0.00000000E+00  0.00000000E+00  0.00000000E+00
  0.00000000E+00  0.00000000E+00  0.00000000E+00
  0.00000000E+00  0.00000000E+00  0.00000000E+00
  0.00000000E+00  0.00000000E+00  0.00000000E+00
  0.00000000E+00  0.00000000E+00  0.00000000E+00
  0.00000000E+00  0.00000000E+00  0.00000000E+00
  0.00000000E+00  0.00000000E+00  0.00000000E+00
  0.00000000E+00  0.00000000E+00  0.00000000E+00
  0.00000000E+00  0.00000000E+00  0.00000000E+00
  0.00000000E+00  0.00000000E+00  0.00000000E+00
  0.00000000E+00  0.00000000E+00  0.00000000E+00
  0.00000000E+00  0.00000000E+00  0.00000000E+00
  0.00000000E+00  0.00000000E+00  0.00000000E+00
  0.00000000E+00  0.00000000E+00  0.00000000E+00
  0.00000000E+00  0.00000000E+00  0.00000000E+00
  0.00000000E+00  0.00000000E+00  0.00000000E+00
  0.00000000E+00  0.00000000E+00  0.00000000E+00
  0.00000000E+00  0.00000000E+00  0.00000000E+00
  0.00000000E+00  0.00000000E+00  0.00000000E+00
