In36 Ga18 Cu24 Ag30 Se108               
   1.0000000000000000     
    16.3767807170294049   -0.0389212874023601   -7.2522844242533573
    -3.2603928664222384   15.9969615188216565   -7.4120273203184661
    -0.1435206703930586    0.0458108084831670   21.7881141729655745
   In   Ga   Cu   Ag   Se
    36    18    24    30   108
Direct
  0.1644111924616922  0.4956750195108839  0.9963829151878585
  0.4971553210764270  0.5012941729193230  0.9970150232710324
  0.8342005488183872  0.4970132639898139  0.9978298908441019
  0.1645822167234883  0.8376948019709971  0.0013476468516203
  0.8359477278458129  0.8346258587985815  0.0000010126477648
  0.5020374859466656  0.1640325285442046  0.9975336164711806
  0.1692793183481243  0.5017643637455436  0.3352159950457718
  0.4977915111716058  0.4913206346857777  0.3315924144287905
  0.8330404401191771  0.4940376152401527  0.3319256956980610
  0.1611546524971956  0.8378671971297109  0.3318880161143198
  0.5023406738687726  0.8402168055999581  0.3330521049776536
  0.8330320667903095  0.8400121665230103  0.3319459588395688
  0.1659604681715905  0.1645016945811975  0.3342674193742781
  0.5026349787937505  0.1639036349083014  0.3298667452080153
  0.8326005970885149  0.1655760934340549  0.3347526501659956
  0.8393976292628054  0.4936367724835975  0.6723095417121954
  0.1668880356783262  0.8377620126802441  0.6699265648819690
  0.4970043648697526  0.8402352488279234  0.6680980842937458
  0.8381866152387403  0.8393001393396702  0.6681186433190618
  0.1638201830357815  0.1688815070972112  0.6669300417733623
  0.8385226001293233  0.1717992926914818  0.6694808217521953
  0.5839194073288994  0.4085350791212150  0.1661542727401439
  0.9141009840184680  0.4132883678698747  0.1642638252980433
  0.2476176100091365  0.7522297723879916  0.1641208009018698
  0.5830881971947122  0.0817343823381123  0.1621728716116806
  0.9145699056615300  0.0822359004877100  0.1631768179837465
  0.5885630997607123  0.4099618987797982  0.5042689490420145
  0.9172220021297406  0.4145294324717952  0.5056254367810453
  0.2454720837867725  0.7569164708453258  0.4999068568277352
  0.5832017183924023  0.7567406867160571  0.5004808185249559
  0.9201852479885915  0.7533580377292992  0.4993780597243784
  0.5851812940025098  0.0879457847401284  0.5031685656888172
  0.2492854195899241  0.7491872846012839  0.8331170829858650
  0.5771242673123069  0.7503942009767641  0.8329316713100141
  0.9182848648371476  0.7527889952456519  0.8305725369368417
  0.2505463938407573  0.0882639268643572  0.8359785674262241
  0.4980460062088952  0.8304600744894870  0.9949582205628360
  0.1649969841104735  0.1660515735856691  0.0002645565595216
  0.8316909382465880  0.1655032550781286  0.9962477687092246
  0.1661946847621394  0.4968509304263051  0.6676025489412609
  0.5011632012491134  0.4949861628833219  0.6709539232072856
  0.5021981997300529  0.1665982231410155  0.6711158006318740
  0.2461597795308279  0.4091937151247436  0.1625670556929109
  0.5788060993750008  0.7540334011894529  0.1629462523232448
  0.9194233277876691  0.7538600020638384  0.1671480480750702
  0.2478969395414410  0.0825521564953249  0.1622546940825202
  0.2523213953849179  0.4155477931368949  0.5050708443520193
  0.2524141567857257  0.0796776775951145  0.5042845813088306
  0.9146395687395739  0.0847276132517578  0.4995799824110492
  0.2489828424375347  0.4132138697918180  0.8299748471468646
  0.5818316361908416  0.4102842040874037  0.8294827490440682
  0.9179704160403617  0.4091306289813232  0.8346319657648635
  0.5849582356932146  0.0862323179849014  0.8341142110096840
  0.9235854292978090  0.0917163384976618  0.8410370608960775
  0.9991172977211420  0.3262464867501507  0.9937231380178773
  0.3355311414950535  0.6644025183069857  0.9949291483151086
  0.0024786314794412  0.0025817326870694  0.9988691244292909
  0.6644035692161339  0.0033149133467631  0.9951060650783106
  0.6669621685118798  0.3254167496673972  0.3305630217621669
  0.9990681195913140  0.6715242471760092  0.3333927196300124
  0.0015747511922655  0.9979578950494670  0.3341887443779328
  0.6727522546076727  0.0008148772159871  0.3373681891913947
  0.9995863621735026  0.3320318720784670  0.6710720744482259
  0.6700453316406865  0.3296070861705189  0.6753083321950015
  0.0065675784788013  0.6712838957248977  0.6725005944990698
  0.0783493474455383  0.9215734760303746  0.1654286773073821
  0.4126926299541438  0.2491583347945792  0.1660613176726429
  0.7504708725695011  0.2407731510950271  0.1619319881455681
  0.0790158778213552  0.9223923175095194  0.4952738273016806
  0.4184733756936723  0.9254173212556367  0.5025586330534537
  0.7513012255448075  0.9226245226350827  0.4975050748169920
  0.7510418837487194  0.2451557427522388  0.5010679297694978
  0.4114716538729652  0.5769988357534217  0.8319704534931986
  0.0831856857889903  0.9225540645538004  0.8361941442403804
  0.4223600376220560  0.9208524665890323  0.8378718405934649
  0.0834966106488508  0.2519524535809694  0.8374804442085164
  0.4184335746890611  0.2509164348609048  0.8307995469976746
  0.7508078893322079  0.2509907789228265  0.8335877065012554
  0.3251419687509127  0.3262624530598401  0.9979485734479923
  0.6618482945663757  0.3249193627100908  0.9896436408150606
  0.9967641877793980  0.6671528828991882  0.9992274073291370
  0.6615572095984064  0.6669292191979395  0.9971263859813746
  0.3314090139339356  0.9979846728518993  0.9954912318916627
  0.0042706753672803  0.3409453802901723  0.3392731951168813
  0.3283562350558995  0.3253742813331755  0.3306055615451484
  0.3391622361048618  0.6680176191537939  0.3307851131470301
  0.6644792810815403  0.6739442632597772  0.3307198052926665
  0.3246516767904168  0.0057445437146839  0.3342396685936180
  0.3343409899911336  0.3388365390381622  0.6697187563632241
  0.3352103073806205  0.6586778204715813  0.6673985100379198
  0.6695465522391046  0.6613740487840047  0.6658869373948804
  0.9962287280941240  0.0009828006518973  0.6667248709322564
  0.3356801758396344  0.0083630594162898  0.6728308854384153
  0.6735978089798778  0.0063407358285588  0.6692986761204907
  0.0824110429463332  0.5726216565135189  0.1650524663653812
  0.4109932153936100  0.5807344695627066  0.1613643113224512
  0.7557053965354115  0.5912850708169799  0.1716227159719921
  0.4227459582867752  0.9131387827354658  0.1622641391862842
  0.7449446038850454  0.9183079722113021  0.1624560124135712
  0.0774014978466653  0.2433713621291460  0.1563488861848583
  0.0780130366279508  0.5822861840300746  0.5036754862413630
  0.4172382917673048  0.5841775613198195  0.5055741528071351
  0.7544055443456372  0.5880897737840982  0.4990308051931365
  0.0881079241466907  0.2397487383592889  0.5025937081985248
  0.4208439954795153  0.2556233020754348  0.5140956957612417
  0.0884031445914317  0.5742161239913486  0.8310191503781397
  0.7419499449702300  0.5739214871894447  0.8270172020657967
  0.7556239261557636  0.9282987678164716  0.8418510918070297
  0.1225229605277747  0.4430736367531836  0.0788522746218874
  0.4570274906422185  0.4518894901876536  0.0802502191250269
  0.7865330939214772  0.4571875032918697  0.0811867056303655
  0.1174902219138048  0.8015101287188529  0.0875729707267610
  0.4569468592600074  0.7831438295058462  0.0723158664544741
  0.7969735831235170  0.7886463258630769  0.0860046624937780
  0.1259960470928831  0.1167774259272747  0.0764296002814575
  0.4536483227442645  0.1323965121057711  0.0856388695291628
  0.7836842361976295  0.1237883427322970  0.0743443656833591
  0.1374437926165442  0.4609425134217631  0.4273003690602053
  0.4587950979961164  0.4527384310197036  0.4204796849806485
  0.7845504203809597  0.4474432501235626  0.4128964137177817
  0.1107410134376536  0.7962318257455934  0.4153012997606282
  0.4560772833312825  0.8065539191774036  0.4215227918284938
  0.7909928716847645  0.8028318610503860  0.4210125904360353
  0.1282812924431127  0.1105071778225977  0.4173782579049998
  0.4571863278017219  0.1301135956020687  0.4178245624147081
  0.7885574712166772  0.1222456549602882  0.4212313847952132
  0.1258157664717316  0.4435698239146575  0.7416361538972964
  0.4656554276372162  0.4641780853736250  0.7579299023560466
  0.7939781441834555  0.4438214845821804  0.7536305500294915
  0.1166372115752097  0.7978038419675855  0.7547053985033898
  0.4503028082950280  0.7990354459510343  0.7523369206597295
  0.7886913993189282  0.7967461052421640  0.7495065925990687
  0.1207574516221612  0.1337666397606725  0.7559126121002464
  0.4671955313944522  0.1348883198794297  0.7583844795385701
  0.8025726529825121  0.1343278861503592  0.7624673345144899
  0.2895127332064931  0.6274552895733621  0.0731531549585824
  0.6226099443863973  0.6333407062629988  0.0893279070889577
  0.9578970002682752  0.6305882984612694  0.0893031729844154
  0.2927551797303707  0.9647646296913877  0.0878132968125058
  0.6181947207882530  0.9531729344581379  0.0674036338936190
  0.9670557701435527  0.9606760009970898  0.0792501895356423
  0.2885333697723240  0.2851591743061306  0.0867729914994229
  0.6357948159510158  0.2854696984155467  0.0851792705520538
  0.9508394898730472  0.2869134168197220  0.0697655765519229
  0.2945251903162145  0.6307364716668928  0.4190706260479615
  0.6209170524858010  0.6253277529450045  0.4133062806122751
  0.9595838463105082  0.6253746933165090  0.4094049707872855
  0.2954673370744203  0.9623580599563866  0.4256531094667153
  0.6356897458704793  0.9640231230177179  0.4188453669188092
  0.9632468963430583  0.9696941867324895  0.4201643185591237
  0.2915243819233098  0.2954538667618394  0.4257048910353873
  0.6382183803212556  0.2872915602267767  0.4169147650145391
  0.9626817271015184  0.2904456845769161  0.4207347274684992
  0.2895904175411204  0.6129473502307263  0.7506760175391989
  0.6142389010416593  0.6193374107508163  0.7444716652743750
  0.9645847624395216  0.6258075537892793  0.7472508317385831
  0.3014801292208915  0.9596205952528578  0.7598653710028458
  0.6247486002434712  0.9683203605997690  0.7548163370556438
  0.9653560626949158  0.9693843326848679  0.7631944629769265
  0.2970546597121739  0.2939922229026521  0.7577220600798640
  0.6267425771876063  0.2880054190581944  0.7517173316352412
  0.9705524514345711  0.2978261124357005  0.7582486594156563
  0.2057200816584412  0.3732893175444900  0.2434560685192011
  0.5408891726802807  0.3584865299794373  0.2495289729898218
  0.8678127592700875  0.3611173798233835  0.2428379474083115
  0.2050061626703936  0.7082890227887972  0.2484833871268108
  0.5372280696404346  0.7119141705193783  0.2405874152798404
  0.8866078157105974  0.7155964703299915  0.2522155866934099
  0.1999547893749991  0.0387108314593974  0.2374491248798520
  0.5550732363194442  0.0369139003598207  0.2537961063993421
  0.8825519288754791  0.0381851165258169  0.2543322931711884
  0.2053899686117973  0.3798298580594661  0.5833502628834708
  0.5541203646759740  0.3779874061876569  0.6011225336143156
  0.8760582655837155  0.3594987257168611  0.5860502781904344
  0.2094830128450269  0.7094469247010835  0.5859801914616085
  0.5440393205231899  0.7135693668252401  0.5868109171960398
  0.8888327431902638  0.7095755472099512  0.5903847813139791
  0.2016241782107642  0.0373475150797020  0.5775339467578462
  0.5362906076546778  0.0444868348804732  0.5865825434501701
  0.8698690543292713  0.0397904406966632  0.5750286854065578
  0.2035531091292739  0.3691118206276087  0.9059588598504149
  0.5349288469934592  0.3706016668393133  0.9060386143773229
  0.8779815226927710  0.3646642457615883  0.9133464003829062
  0.2143165503498068  0.7077152268522084  0.9231601250094599
  0.5262614776231302  0.7026647683607834  0.9120786882260248
  0.8686926178771017  0.7042175446460064  0.9089301990003307
  0.1996706966359838  0.0439940300968900  0.9168821829950602
  0.5447128219621078  0.0358062244494022  0.9102417211749980
  0.8877549493797403  0.0521747425160086  0.9249479875585749
  0.0367347028962968  0.5478142886238544  0.2574531729920153
  0.3665304505816209  0.5288353113024726  0.2414681940567434
  0.7067954057067780  0.5407847281614195  0.2504355518376684
  0.0341333750959336  0.8824772180789893  0.2437918456021464
  0.3731446642960492  0.8817301789509813  0.2495461687091094
  0.6968483042591203  0.8780317089632561  0.2475172844051201
  0.0412051800480882  0.2107141024654169  0.2497991853292660
  0.3702407585645702  0.2013526945315078  0.2398757557944506
  0.7101841313481714  0.2134122047013491  0.2468389407246860
  0.0451957988734932  0.5465258787106606  0.5974062216469136
  0.3788686014471310  0.5279990121828462  0.5863157608866203
  0.7157791663317639  0.5372753638798216  0.5841968435014522
  0.0467189929587093  0.8837275331815349  0.5791976062268773
  0.3750561653108093  0.8841472083065156  0.5784629958594323
  0.7149336133493733  0.8826387143479337  0.5777492223162000
  0.0295495331652234  0.2097252058899599  0.5855397886112925
  0.3742647444979710  0.1995750206988376  0.5907314540306956
  0.7099313205531956  0.2206763306010799  0.5876608599454656
  0.0314178223076453  0.5337254052852742  0.9114814079161420
  0.3645963379122392  0.5410187285685240  0.9094942081048458
  0.6987132634607462  0.5314314380779805  0.9119825089376192
  0.0414654026464447  0.8868005172634952  0.9160427326472700
  0.3826448947215582  0.8751768779610387  0.9144828794281423
  0.7045600067264033  0.8810874332971466  0.9214321174280471
  0.0467667439464705  0.2116032088989215  0.9190615875994439
  0.3810643432019063  0.2129079045270501  0.9116097735419189
  0.7119305278550954  0.2000820975984183  0.9088524637019972

  0.00000000E+00  0.00000000E+00  0.00000000E+00
  0.00000000E+00  0.00000000E+00  0.00000000E+00
  0.00000000E+00  0.00000000E+00  0.00000000E+00
  0.00000000E+00  0.00000000E+00  0.00000000E+00
  0.00000000E+00  0.00000000E+00  0.00000000E+00
  0.00000000E+00  0.00000000E+00  0.00000000E+00
  0.00000000E+00  0.00000000E+00  0.00000000E+00
  0.00000000E+00  0.00000000E+00  0.00000000E+00
  0.00000000E+00  0.00000000E+00  0.00000000E+00
  0.00000000E+00  0.00000000E+00  0.00000000E+00
  0.00000000E+00  0.00000000E+00  0.00000000E+00
  0.00000000E+00  0.00000000E+00  0.00000000E+00
  0.00000000E+00  0.00000000E+00  0.00000000E+00
  0.00000000E+00  0.00000000E+00  0.00000000E+00
  0.00000000E+00  0.00000000E+00  0.00000000E+00
  0.00000000E+00  0.00000000E+00  0.00000000E+00
  0.00000000E+00  0.00000000E+00  0.00000000E+00
  0.00000000E+00  0.00000000E+00  0.00000000E+00
  0.00000000E+00  0.00000000E+00  0.00000000E+00
  0.00000000E+00  0.00000000E+00  0.00000000E+00
  0.00000000E+00  0.00000000E+00  0.00000000E+00
  0.00000000E+00  0.00000000E+00  0.00000000E+00
  0.00000000E+00  0.00000000E+00  0.00000000E+00
  0.00000000E+00  0.00000000E+00  0.00000000E+00
  0.00000000E+00  0.00000000E+00  0.00000000E+00
  0.00000000E+00  0.00000000E+00  0.00000000E+00
  0.00000000E+00  0.00000000E+00  0.00000000E+00
  0.00000000E+00  0.00000000E+00  0.00000000E+00
  0.00000000E+00  0.00000000E+00  0.00000000E+00
  0.00000000E+00  0.00000000E+00  0.00000000E+00
  0.00000000E+00  0.00000000E+00  0.00000000E+00
  0.00000000E+00  0.00000000E+00  0.00000000E+00
  0.00000000E+00  0.00000000E+00  0.00000000E+00
  0.00000000E+00  0.00000000E+00  0.00000000E+00
  0.00000000E+00  0.00000000E+00  0.00000000E+00
  0.00000000E+00  0.00000000E+00  0.00000000E+00
  0.00000000E+00  0.00000000E+00  0.00000000E+00
  0.00000000E+00  0.00000000E+00  0.00000000E+00
  0.00000000E+00  0.00000000E+00  0.00000000E+00
  0.00000000E+00  0.00000000E+00  0.00000000E+00
  0.00000000E+00  0.00000000E+00  0.00000000E+00
  0.00000000E+00  0.00000000E+00  0.00000000E+00
  0.00000000E+00  0.00000000E+00  0.00000000E+00
  0.00000000E+00  0.00000000E+00  0.00000000E+00
  0.00000000E+00  0.00000000E+00  0.00000000E+00
  0.00000000E+00  0.00000000E+00  0.00000000E+00
  0.00000000E+00  0.00000000E+00  0.00000000E+00
  0.00000000E+00  0.00000000E+00  0.00000000E+00
  0.00000000E+00  0.00000000E+00  0.00000000E+00
  0.00000000E+00  0.00000000E+00  0.00000000E+00
  0.00000000E+00  0.00000000E+00  0.00000000E+00
  0.00000000E+00  0.00000000E+00  0.00000000E+00
  0.00000000E+00  0.00000000E+00  0.00000000E+00
  0.00000000E+00  0.00000000E+00  0.00000000E+00
  0.00000000E+00  0.00000000E+00  0.00000000E+00
  0.00000000E+00  0.00000000E+00  0.00000000E+00
  0.00000000E+00  0.00000000E+00  0.00000000E+00
  0.00000000E+00  0.00000000E+00  0.00000000E+00
  0.00000000E+00  0.00000000E+00  0.00000000E+00
  0.00000000E+00  0.00000000E+00  0.00000000E+00
  0.00000000E+00  0.00000000E+00  0.00000000E+00
  0.00000000E+00  0.00000000E+00  0.00000000E+00
  0.00000000E+00  0.00000000E+00  0.00000000E+00
  0.00000000E+00  0.00000000E+00  0.00000000E+00
  0.00000000E+00  0.00000000E+00  0.00000000E+00
  0.00000000E+00  0.00000000E+00  0.00000000E+00
  0.00000000E+00  0.00000000E+00  0.00000000E+00
  0.00000000E+00  0.00000000E+00  0.00000000E+00
  0.00000000E+00  0.00000000E+00  0.00000000E+00
  0.00000000E+00  0.00000000E+00  0.00000000E+00
  0.00000000E+00  0.00000000E+00  0.00000000E+00
  0.00000000E+00  0.00000000E+00  0.00000000E+00
  0.00000000E+00  0.00000000E+00  0.00000000E+00
  0.00000000E+00  0.00000000E+00  0.00000000E+00
  0.00000000E+00  0.00000000E+00  0.00000000E+00
  0.00000000E+00  0.00000000E+00  0.00000000E+00
  0.00000000E+00  0.00000000E+00  0.00000000E+00
  0.00000000E+00  0.00000000E+00  0.00000000E+00
  0.00000000E+00  0.00000000E+00  0.00000000E+00
  0.00000000E+00  0.00000000E+00  0.00000000E+00
  0.00000000E+00  0.00000000E+00  0.00000000E+00
  0.00000000E+00  0.00000000E+00  0.00000000E+00
  0.00000000E+00  0.00000000E+00  0.00000000E+00
  0.00000000E+00  0.00000000E+00  0.00000000E+00
  0.00000000E+00  0.00000000E+00  0.00000000E+00
  0.00000000E+00  0.00000000E+00  0.00000000E+00
  0.00000000E+00  0.00000000E+00  0.00000000E+00
  0.00000000E+00  0.00000000E+00  0.00000000E+00
  0.00000000E+00  0.00000000E+00  0.00000000E+00
  0.00000000E+00  0.00000000E+00  0.00000000E+00
  0.00000000E+00  0.00000000E+00  0.00000000E+00
  0.00000000E+00  0.00000000E+00  0.00000000E+00
  0.00000000E+00  0.00000000E+00  0.00000000E+00
  0.00000000E+00  0.00000000E+00  0.00000000E+00
  0.00000000E+00  0.00000000E+00  0.00000000E+00
  0.00000000E+00  0.00000000E+00  0.00000000E+00
  0.00000000E+00  0.00000000E+00  0.00000000E+00
  0.00000000E+00  0.00000000E+00  0.00000000E+00
  0.00000000E+00  0.00000000E+00  0.00000000E+00
  0.00000000E+00  0.00000000E+00  0.00000000E+00
  0.00000000E+00  0.00000000E+00  0.00000000E+00
  0.00000000E+00  0.00000000E+00  0.00000000E+00
  0.00000000E+00  0.00000000E+00  0.00000000E+00
  0.00000000E+00  0.00000000E+00  0.00000000E+00
  0.00000000E+00  0.00000000E+00  0.00000000E+00
  0.00000000E+00  0.00000000E+00  0.00000000E+00
  0.00000000E+00  0.00000000E+00  0.00000000E+00
  0.00000000E+00  0.00000000E+00  0.00000000E+00
  0.00000000E+00  0.00000000E+00  0.00000000E+00
  0.00000000E+00  0.00000000E+00  0.00000000E+00
  0.00000000E+00  0.00000000E+00  0.00000000E+00
  0.00000000E+00  0.00000000E+00  0.00000000E+00
  0.00000000E+00  0.00000000E+00  0.00000000E+00
  0.00000000E+00  0.00000000E+00  0.00000000E+00
  0.00000000E+00  0.00000000E+00  0.00000000E+00
  0.00000000E+00  0.00000000E+00  0.00000000E+00
  0.00000000E+00  0.00000000E+00  0.00000000E+00
  0.00000000E+00  0.00000000E+00  0.00000000E+00
  0.00000000E+00  0.00000000E+00  0.00000000E+00
  0.00000000E+00  0.00000000E+00  0.00000000E+00
  0.00000000E+00  0.00000000E+00  0.00000000E+00
  0.00000000E+00  0.00000000E+00  0.00000000E+00
  0.00000000E+00  0.00000000E+00  0.00000000E+00
  0.00000000E+00  0.00000000E+00  0.00000000E+00
  0.00000000E+00  0.00000000E+00  0.00000000E+00
  0.00000000E+00  0.00000000E+00  0.00000000E+00
  0.00000000E+00  0.00000000E+00  0.00000000E+00
  0.00000000E+00  0.00000000E+00  0.00000000E+00
  0.00000000E+00  0.00000000E+00  0.00000000E+00
  0.00000000E+00  0.00000000E+00  0.00000000E+00
  0.00000000E+00  0.00000000E+00  0.00000000E+00
  0.00000000E+00  0.00000000E+00  0.00000000E+00
  0.00000000E+00  0.00000000E+00  0.00000000E+00
  0.00000000E+00  0.00000000E+00  0.00000000E+00
  0.00000000E+00  0.00000000E+00  0.00000000E+00
  0.00000000E+00  0.00000000E+00  0.00000000E+00
  0.00000000E+00  0.00000000E+00  0.00000000E+00
  0.00000000E+00  0.00000000E+00  0.00000000E+00
  0.00000000E+00  0.00000000E+00  0.00000000E+00
  0.00000000E+00  0.00000000E+00  0.00000000E+00
  0.00000000E+00  0.00000000E+00  0.00000000E+00
  0.00000000E+00  0.00000000E+00  0.00000000E+00
  0.00000000E+00  0.00000000E+00  0.00000000E+00
  0.00000000E+00  0.00000000E+00  0.00000000E+00
  0.00000000E+00  0.00000000E+00  0.00000000E+00
  0.00000000E+00  0.00000000E+00  0.00000000E+00
  0.00000000E+00  0.00000000E+00  0.00000000E+00
  0.00000000E+00  0.00000000E+00  0.00000000E+00
  0.00000000E+00  0.00000000E+00  0.00000000E+00
  0.00000000E+00  0.00000000E+00  0.00000000E+00
  0.00000000E+00  0.00000000E+00  0.00000000E+00
  0.00000000E+00  0.00000000E+00  0.00000000E+00
  0.00000000E+00  0.00000000E+00  0.00000000E+00
  0.00000000E+00  0.00000000E+00  0.00000000E+00
  0.00000000E+00  0.00000000E+00  0.00000000E+00
  0.00000000E+00  0.00000000E+00  0.00000000E+00
  0.00000000E+00  0.00000000E+00  0.00000000E+00
  0.00000000E+00  0.00000000E+00  0.00000000E+00
  0.00000000E+00  0.00000000E+00  0.00000000E+00
  0.00000000E+00  0.00000000E+00  0.00000000E+00
  0.00000000E+00  0.00000000E+00  0.00000000E+00
  0.00000000E+00  0.00000000E+00  0.00000000E+00
  0.00000000E+00  0.00000000E+00  0.00000000E+00
  0.00000000E+00  0.00000000E+00  0.00000000E+00
  0.00000000E+00  0.00000000E+00  0.00000000E+00
  0.00000000E+00  0.00000000E+00  0.00000000E+00
  0.00000000E+00  0.00000000E+00  0.00000000E+00
  0.00000000E+00  0.00000000E+00  0.00000000E+00
  0.00000000E+00  0.00000000E+00  0.00000000E+00
  0.00000000E+00  0.00000000E+00  0.00000000E+00
  0.00000000E+00  0.00000000E+00  0.00000000E+00
  0.00000000E+00  0.00000000E+00  0.00000000E+00
  0.00000000E+00  0.00000000E+00  0.00000000E+00
  0.00000000E+00  0.00000000E+00  0.00000000E+00
  0.00000000E+00  0.00000000E+00  0.00000000E+00
  0.00000000E+00  0.00000000E+00  0.00000000E+00
  0.00000000E+00  0.00000000E+00  0.00000000E+00
  0.00000000E+00  0.00000000E+00  0.00000000E+00
  0.00000000E+00  0.00000000E+00  0.00000000E+00
  0.00000000E+00  0.00000000E+00  0.00000000E+00
  0.00000000E+00  0.00000000E+00  0.00000000E+00
  0.00000000E+00  0.00000000E+00  0.00000000E+00
  0.00000000E+00  0.00000000E+00  0.00000000E+00
  0.00000000E+00  0.00000000E+00  0.00000000E+00
  0.00000000E+00  0.00000000E+00  0.00000000E+00
  0.00000000E+00  0.00000000E+00  0.00000000E+00
  0.00000000E+00  0.00000000E+00  0.00000000E+00
  0.00000000E+00  0.00000000E+00  0.00000000E+00
  0.00000000E+00  0.00000000E+00  0.00000000E+00
  0.00000000E+00  0.00000000E+00  0.00000000E+00
  0.00000000E+00  0.00000000E+00  0.00000000E+00
  0.00000000E+00  0.00000000E+00  0.00000000E+00
  0.00000000E+00  0.00000000E+00  0.00000000E+00
  0.00000000E+00  0.00000000E+00  0.00000000E+00
  0.00000000E+00  0.00000000E+00  0.00000000E+00
  0.00000000E+00  0.00000000E+00  0.00000000E+00
  0.00000000E+00  0.00000000E+00  0.00000000E+00
  0.00000000E+00  0.00000000E+00  0.00000000E+00
  0.00000000E+00  0.00000000E+00  0.00000000E+00
  0.00000000E+00  0.00000000E+00  0.00000000E+00
  0.00000000E+00  0.00000000E+00  0.00000000E+00
  0.00000000E+00  0.00000000E+00  0.00000000E+00
  0.00000000E+00  0.00000000E+00  0.00000000E+00
  0.00000000E+00  0.00000000E+00  0.00000000E+00
  0.00000000E+00  0.00000000E+00  0.00000000E+00
  0.00000000E+00  0.00000000E+00  0.00000000E+00
  0.00000000E+00  0.00000000E+00  0.00000000E+00
  0.00000000E+00  0.00000000E+00  0.00000000E+00
  0.00000000E+00  0.00000000E+00  0.00000000E+00
  0.00000000E+00  0.00000000E+00  0.00000000E+00
  0.00000000E+00  0.00000000E+00  0.00000000E+00
  0.00000000E+00  0.00000000E+00  0.00000000E+00
  0.00000000E+00  0.00000000E+00  0.00000000E+00
  0.00000000E+00  0.00000000E+00  0.00000000E+00
  0.00000000E+00  0.00000000E+00  0.00000000E+00
  0.00000000E+00  0.00000000E+00  0.00000000E+00
