In6 Ga48 Cu24 Ag30 Se108                
   1.0000000000000000     
    16.0388432489553345   -0.0023627897433872   -7.3397617141875244
    -3.3659612690314722   15.6962160423869630   -7.3386293561146871
    -0.0059955901781844   -0.0011505491913904   21.1914356294107655
   In   Ga   Cu   Ag   Se
     6    48    24    30   108
Direct
  0.5004115117533061  0.8314481989250808  0.3343776331761461
  0.1680389740911394  0.5047024088428600  0.6660889077138918
  0.8335566014771132  0.1568593306441457  0.6632564027219843
  0.2481514978677666  0.0845165397279430  0.1687213321439032
  0.9214343095654982  0.4221105621852104  0.8343565878283172
  0.9226785339709167  0.7536059811671976  0.8338010340771689
  0.1725896811508605  0.5087544084677802  0.0038155254741810
  0.4974835540630096  0.4999021468513618  0.0010341172512582
  0.8350573995384778  0.4991796342615515  0.0048734684995040
  0.1714518266877079  0.8377191201693179  0.0011102103585188
  0.4976887674525443  0.8361728166674496  0.0039275030102175
  0.8368406558456698  0.8388087390166561  0.0038264204090765
  0.1632650422091402  0.1626226153419239  0.0003200816220357
  0.4991402652649697  0.1664206518287443  0.9994803707661006
  0.8372872704920624  0.1637142626036194  0.0028399127811127
  0.1673189560958619  0.4947765675942648  0.3315244368689179
  0.4965673406920246  0.5004433884648165  0.3329750315036151
  0.8309649092441092  0.4955795290254272  0.3309591142410397
  0.1698077213766638  0.8333596447395877  0.3333388987174075
  0.8307357221618759  0.8308795418264978  0.3314324416397980
  0.1674651558888272  0.1703449504235195  0.3347074822094527
  0.4986609264989710  0.1721282635364361  0.3352741775488326
  0.8341146541564726  0.1693569371834869  0.3312700153173864
  0.4910147725956122  0.5020484786112362  0.6638716398561897
  0.8371537261083972  0.5017916603411692  0.6614196566742478
  0.1620164745814563  0.8309008759763188  0.6652965487107210
  0.4958016545487425  0.8274668622574950  0.6639942162304635
  0.8375826520986180  0.8333387637368759  0.6625508744040332
  0.1684858355404799  0.1623984836661592  0.6654411717047566
  0.4964974530271107  0.1690003303045984  0.6681152804871360
  0.2451095926421729  0.4160517481657706  0.1665666270804138
  0.5854843705742283  0.4156007351339568  0.1698610114505001
  0.9199441358565750  0.4120761882061501  0.1675838759994619
  0.2469055038218499  0.7543143259513414  0.1686130429075234
  0.5852869857391951  0.7464003616391466  0.1637655184684306
  0.9196540953273526  0.7533570188400347  0.1687134560502770
  0.5838438247444770  0.0868414977385754  0.1670908355809857
  0.9197372780240229  0.0861215308383905  0.1677433345436228
  0.2501445159672997  0.4166150111128815  0.4968799565333057
  0.5801078205940868  0.4207290695180959  0.4982878693530992
  0.9131854301349520  0.4177109043583229  0.4942555658563137
  0.2494000321347301  0.7478340668834633  0.4994153301649291
  0.5803052401186193  0.7453905015832305  0.4973756613757274
  0.9146804940194002  0.7501091778995175  0.4967579527792481
  0.2472555823262184  0.0820020593864896  0.4981063095537550
  0.5811813453168924  0.0832940904029797  0.4996437597493966
  0.9202360944690753  0.0742191124732372  0.4973611828974711
  0.2524399629410325  0.4182609174267569  0.8367271030734571
  0.5778629420993369  0.4149525058303638  0.8332106207697905
  0.2488093606216282  0.7551024266905628  0.8352055681251045
  0.5814407552170948  0.7512096652655984  0.8346623100839565
  0.2480735099092115  0.0793948688101764  0.8326719926795505
  0.5808925461626657  0.0830721705207225  0.8339044701092675
  0.9217099928590997  0.0770010120629649  0.8352337462227766
  0.3300099964687746  0.6694394725056014  0.9988508531102127
  0.0047101255443351  0.0003952341225499  0.0038710932622266
  0.3302082606911441  0.0025047890160010  0.9968835427026548
  0.9978287647929420  0.3313102532681569  0.3282166362044450
  0.3336441150910616  0.3430503837272951  0.3364152148004536
  0.6633371185726915  0.3302591754238051  0.3295094182406970
  0.3267909807073721  0.6603642345137359  0.3319773209023182
  0.6693816809110231  0.6643340566575660  0.3333327267604531
  0.3290410601373424  0.0034334357926369  0.3344819570718869
  0.3334028625152783  0.3312675142795101  0.6699714892041158
  0.0030199436573355  0.6696232123904196  0.6684774155216004
  0.3326451649938136  0.6674694692006327  0.6632914901947728
  0.0021140706331124  0.9922099566973941  0.6634229726913077
  0.0864772702032965  0.5871357486859026  0.1697782271434818
  0.0810452312114904  0.9221975404814273  0.1673354476347129
  0.7523139142856152  0.9196037070299994  0.1697841804891524
  0.0845327869212937  0.2508376069950913  0.1710978538826495
  0.7534482299983978  0.2513086253920633  0.1710917479004408
  0.4110241938746810  0.5832226338807516  0.4975290512032302
  0.0824356562420263  0.9137140647594890  0.4998017239838006
  0.7542915683281421  0.9104537373150023  0.4975065330793811
  0.0887340795740386  0.5895861498079853  0.8357533045514316
  0.0858496200686218  0.9184684610851335  0.8328813790369338
  0.4106751336854586  0.2505989260454839  0.8303990144379512
  0.0084213059933305  0.3336366482114244  0.0063878785322657
  0.3345784464219363  0.3254292146737967  0.9994855485940164
  0.6585434817042852  0.3290568732287937  0.9978861068679734
  0.0074345018627042  0.6724871202245666  0.0113784271996238
  0.6727378597813356  0.6752999624357585  0.0023718364725553
  0.6694578448298145  0.0005170664884204  0.0072436570385506
  0.0075869018138377  0.6643638784285741  0.3315267865660019
  0.9993037081818343  0.9973802930175495  0.3299219824882655
  0.6645208292899127  0.9983562168982303  0.3332761369793147
  0.0056485809149862  0.3379992767164808  0.6630408438440583
  0.6617886332980447  0.3391780504822748  0.6653652758660442
  0.6618630133990919  0.6635474665377430  0.6661384646809836
  0.3329551369119983  0.0039646199196568  0.6691040945359958
  0.6644800227438239  0.9895946867193217  0.6608559118801764
  0.4145484005853106  0.5839600264604172  0.1680116869776072
  0.7516378502748537  0.5809397081690761  0.1677599493256849
  0.4193977119652246  0.9150597356744115  0.1684513677586779
  0.4181671013761843  0.2471885994317731  0.1667690908693444
  0.0836104673520381  0.5833012158635782  0.4951767631459276
  0.7515048437511140  0.5867871316490536  0.4949394053261642
  0.4161653270009253  0.9156035061291661  0.5001599058944208
  0.0810844093631644  0.2559288205589141  0.5020657104766215
  0.4123965501854130  0.2432889787070209  0.4978372521413235
  0.7456826247666655  0.2455880059757547  0.4921283472930540
  0.4143777478049415  0.5820595495573002  0.8340512313479636
  0.7489075787704280  0.5846891138609109  0.8384463465653766
  0.4172559883198588  0.9125082770174302  0.8341427604833456
  0.7498731816534914  0.9201991789735189  0.8321995203434724
  0.0918836460654546  0.2468099966928818  0.8331125889714315
  0.7496316289159637  0.2508806048216385  0.8346821482099713
  0.1325123864770106  0.4706651700563071  0.0886180491040420
  0.4663959414920171  0.4555292548177121  0.0852256174992831
  0.7991723973003459  0.4516818980151811  0.0843384327654491
  0.1330320624750314  0.8076193691695792  0.0905117298888527
  0.4591851006691599  0.7826531644894601  0.0800432009938277
  0.8027194932243589  0.8048027417804562  0.0922343951395632
  0.1169096353594981  0.1287781247675852  0.0826510423449776
  0.4577613668511447  0.1167090711901650  0.0764060925912702
  0.7989952003642529  0.1324728273326414  0.0905997710295026
  0.1236436079102887  0.4490622110140947  0.4095240342314526
  0.4560406597596156  0.4637115851785154  0.4178633924327499
  0.7878497409621446  0.4490188878779762  0.4078163586421439
  0.1333925882659628  0.7997420450369859  0.4218464691429631
  0.4527264947181635  0.7780701650297672  0.4141194062010030
  0.7885671771428235  0.7874732260581681  0.4127406440498831
  0.1311520208188881  0.1281654594662385  0.4171422784046399
  0.4585313086772231  0.1160368852371789  0.4098255435859812
  0.8045463535386901  0.1219330178229328  0.4150505423094160
  0.1340006973222359  0.4676300694206361  0.7612235380531942
  0.4556713433866619  0.4512508557661405  0.7445677574451040
  0.7955759402751568  0.4653899197564613  0.7437570284888722
  0.1225703573860883  0.7929701679701679  0.7508419855579618
  0.4585251293863237  0.7832975154279183  0.7451209043704523
  0.7936964433491127  0.7929708453650477  0.7414255600392607
  0.1265331137619157  0.1128080713407513  0.7425271199053114
  0.4634084079640388  0.1341592325555823  0.7567691071820164
  0.7987640478460847  0.1173652797866893  0.7562785405671235
  0.2895685130358743  0.6362765821461593  0.0835430112287341
  0.6188916789167465  0.6215489158838565  0.0798498947830453
  0.9571984663811861  0.6232868168659422  0.0916257980857580
  0.2924415995418954  0.9596553063867574  0.0769818431099480
  0.6232023573633683  0.9565587312293573  0.0927430719515669
  0.9610517134520649  0.9624059035387305  0.0847331456625966
  0.2804163807906690  0.2895595764050469  0.0839587018028070
  0.6243740966485518  0.2876773294080692  0.0913845841073098
  0.9599478946168816  0.2868905454814978  0.0893934411536463
  0.2878485847915755  0.6219474989555991  0.4151644960798535
  0.6160542240629496  0.6257206431967859  0.4087271736071401
  0.9467577088605594  0.6235210264843047  0.4114106285976789
  0.2871765726476667  0.9615664043140981  0.4133917354131924
  0.6318991225510544  0.9613827269133211  0.4291431698506543
  0.9579295951933489  0.9491090235356410  0.4166274132732113
  0.2877986434811959  0.2954189942179823  0.4111524864473353
  0.6168585670466342  0.2975795129360961  0.4118627624460132
  0.9533641926209384  0.2959899166202717  0.4099118597614861
  0.2933347411437239  0.6402449817473510  0.7507867487631543
  0.6134143302842148  0.6233906046541122  0.7518846333342282
  0.9657899822270650  0.6206520379381857  0.7460668903759711
  0.2820614452483667  0.9541133199669432  0.7496765052004335
  0.6108981693605031  0.9556010971044699  0.7473101269974194
  0.9627470097116344  0.9565415090344302  0.7487381689621415
  0.2889930091734669  0.2913664665526952  0.7498519611221113
  0.6160328696879702  0.2930378477136415  0.7501343373836420
  0.9600398957804686  0.2893789207837187  0.7470421477343479
  0.2073089672436197  0.3715218309205355  0.2488476059173834
  0.5455883207471857  0.3812956689654570  0.2552567777188983
  0.8753198700164191  0.3739465164283260  0.2496182502448931
  0.2093587917941662  0.7075503084765487  0.2513538137466398
  0.5531407039394480  0.7074297802015792  0.2499477331810454
  0.8772546389449545  0.7159437921349081  0.2503588148288287
  0.2041550492361566  0.0413204074704439  0.2559312168951493
  0.5412362432578774  0.0547269440007412  0.2516674493954767
  0.8692430327695959  0.0453237481084869  0.2449304211258223
  0.2205366701100644  0.3771539184407189  0.5849863413104543
  0.5337070884855919  0.3850283166450836  0.5790723541601039
  0.8739938512698089  0.3796346343890420  0.5771293309872050
  0.2130450271533419  0.7135473720156824  0.5869542444153737
  0.5325812293579233  0.7062125520675480  0.5768140497169298
  0.8853789055330239  0.7136372407773379  0.5863141213444933
  0.1999782489549204  0.0390448132510599  0.5755257626553458
  0.5403828239302442  0.0515288813115546  0.5853243573055806
  0.8793627124703463  0.0267445357481151  0.5765055571724318
  0.2119586729405469  0.3857578928806049  0.9217989098318355
  0.5291720400585902  0.3753564650268757  0.9117707672174618
  0.8780714150816351  0.3826678891219331  0.9232792321284293
  0.2091573047596995  0.7110678031908293  0.9172303815655454
  0.5395326670738285  0.7193262653545389  0.9189614792953620
  0.8768721760518190  0.7172203509824300  0.9237877041944316
  0.2079361428540238  0.0415954817057980  0.9173893143169138
  0.5424450008561834  0.0477012133186392  0.9184785008388872
  0.8852578399746704  0.0440861739440237  0.9238764361394374
  0.0464992604761605  0.5311894852006205  0.2437811563886001
  0.3686527920709111  0.5377963556888119  0.2528798852879461
  0.7067120960643578  0.5385109529196725  0.2545575186598796
  0.0475554793369639  0.8684551992823586  0.2445175035063230
  0.3664539601777648  0.8787165295370372  0.2540586181234090
  0.7098936323695213  0.8687882299566141  0.2442925794785324
  0.0427876102929261  0.2096036736951206  0.2514820484897768
  0.3761147523249377  0.2179594399535461  0.2619612637662385
  0.7076151246320137  0.2105999225955131  0.2499852529641302
  0.0313477091982861  0.5436103989925058  0.5800652476601798
  0.3697176564979614  0.5447751901089646  0.5800975242192123
  0.7087312944302582  0.5364295553953937  0.5798223416988009
  0.0411176498105306  0.8713186696356914  0.5793102737925722
  0.3728789278084932  0.8668738994129583  0.5844693123809392
  0.7100155034751836  0.8631905910339981  0.5733252169253618
  0.0420590328356667  0.1963650150281779  0.5826725690753420
  0.3688527431257285  0.2060418207822892  0.5882325425027517
  0.7021306345486806  0.2033933442828868  0.5795807697341502
  0.0544106724209712  0.5504241125806644  0.9198974172232184
  0.3722636154328285  0.5428957814015476  0.9241326210183800
  0.7067970856853663  0.5315531607328623  0.9205014155929376
  0.0523389622016808  0.8865904597766772  0.9226379648159480
  0.3723198432176460  0.8769215991669981  0.9243607667860019
  0.7088760713494295  0.8685453203781321  0.9169478811934084
  0.0428833990691828  0.1986930884092146  0.9150192582339542
  0.3753878931117640  0.1984375574340760  0.9084745523498228
  0.7102753697904447  0.1971546742668195  0.9184490752378096

  0.00000000E+00  0.00000000E+00  0.00000000E+00
  0.00000000E+00  0.00000000E+00  0.00000000E+00
  0.00000000E+00  0.00000000E+00  0.00000000E+00
  0.00000000E+00  0.00000000E+00  0.00000000E+00
  0.00000000E+00  0.00000000E+00  0.00000000E+00
  0.00000000E+00  0.00000000E+00  0.00000000E+00
  0.00000000E+00  0.00000000E+00  0.00000000E+00
  0.00000000E+00  0.00000000E+00  0.00000000E+00
  0.00000000E+00  0.00000000E+00  0.00000000E+00
  0.00000000E+00  0.00000000E+00  0.00000000E+00
  0.00000000E+00  0.00000000E+00  0.00000000E+00
  0.00000000E+00  0.00000000E+00  0.00000000E+00
  0.00000000E+00  0.00000000E+00  0.00000000E+00
  0.00000000E+00  0.00000000E+00  0.00000000E+00
  0.00000000E+00  0.00000000E+00  0.00000000E+00
  0.00000000E+00  0.00000000E+00  0.00000000E+00
  0.00000000E+00  0.00000000E+00  0.00000000E+00
  0.00000000E+00  0.00000000E+00  0.00000000E+00
  0.00000000E+00  0.00000000E+00  0.00000000E+00
  0.00000000E+00  0.00000000E+00  0.00000000E+00
  0.00000000E+00  0.00000000E+00  0.00000000E+00
  0.00000000E+00  0.00000000E+00  0.00000000E+00
  0.00000000E+00  0.00000000E+00  0.00000000E+00
  0.00000000E+00  0.00000000E+00  0.00000000E+00
  0.00000000E+00  0.00000000E+00  0.00000000E+00
  0.00000000E+00  0.00000000E+00  0.00000000E+00
  0.00000000E+00  0.00000000E+00  0.00000000E+00
  0.00000000E+00  0.00000000E+00  0.00000000E+00
  0.00000000E+00  0.00000000E+00  0.00000000E+00
  0.00000000E+00  0.00000000E+00  0.00000000E+00
  0.00000000E+00  0.00000000E+00  0.00000000E+00
  0.00000000E+00  0.00000000E+00  0.00000000E+00
  0.00000000E+00  0.00000000E+00  0.00000000E+00
  0.00000000E+00  0.00000000E+00  0.00000000E+00
  0.00000000E+00  0.00000000E+00  0.00000000E+00
  0.00000000E+00  0.00000000E+00  0.00000000E+00
  0.00000000E+00  0.00000000E+00  0.00000000E+00
  0.00000000E+00  0.00000000E+00  0.00000000E+00
  0.00000000E+00  0.00000000E+00  0.00000000E+00
  0.00000000E+00  0.00000000E+00  0.00000000E+00
  0.00000000E+00  0.00000000E+00  0.00000000E+00
  0.00000000E+00  0.00000000E+00  0.00000000E+00
  0.00000000E+00  0.00000000E+00  0.00000000E+00
  0.00000000E+00  0.00000000E+00  0.00000000E+00
  0.00000000E+00  0.00000000E+00  0.00000000E+00
  0.00000000E+00  0.00000000E+00  0.00000000E+00
  0.00000000E+00  0.00000000E+00  0.00000000E+00
  0.00000000E+00  0.00000000E+00  0.00000000E+00
  0.00000000E+00  0.00000000E+00  0.00000000E+00
  0.00000000E+00  0.00000000E+00  0.00000000E+00
  0.00000000E+00  0.00000000E+00  0.00000000E+00
  0.00000000E+00  0.00000000E+00  0.00000000E+00
  0.00000000E+00  0.00000000E+00  0.00000000E+00
  0.00000000E+00  0.00000000E+00  0.00000000E+00
  0.00000000E+00  0.00000000E+00  0.00000000E+00
  0.00000000E+00  0.00000000E+00  0.00000000E+00
  0.00000000E+00  0.00000000E+00  0.00000000E+00
  0.00000000E+00  0.00000000E+00  0.00000000E+00
  0.00000000E+00  0.00000000E+00  0.00000000E+00
  0.00000000E+00  0.00000000E+00  0.00000000E+00
  0.00000000E+00  0.00000000E+00  0.00000000E+00
  0.00000000E+00  0.00000000E+00  0.00000000E+00
  0.00000000E+00  0.00000000E+00  0.00000000E+00
  0.00000000E+00  0.00000000E+00  0.00000000E+00
  0.00000000E+00  0.00000000E+00  0.00000000E+00
  0.00000000E+00  0.00000000E+00  0.00000000E+00
  0.00000000E+00  0.00000000E+00  0.00000000E+00
  0.00000000E+00  0.00000000E+00  0.00000000E+00
  0.00000000E+00  0.00000000E+00  0.00000000E+00
  0.00000000E+00  0.00000000E+00  0.00000000E+00
  0.00000000E+00  0.00000000E+00  0.00000000E+00
  0.00000000E+00  0.00000000E+00  0.00000000E+00
  0.00000000E+00  0.00000000E+00  0.00000000E+00
  0.00000000E+00  0.00000000E+00  0.00000000E+00
  0.00000000E+00  0.00000000E+00  0.00000000E+00
  0.00000000E+00  0.00000000E+00  0.00000000E+00
  0.00000000E+00  0.00000000E+00  0.00000000E+00
  0.00000000E+00  0.00000000E+00  0.00000000E+00
  0.00000000E+00  0.00000000E+00  0.00000000E+00
  0.00000000E+00  0.00000000E+00  0.00000000E+00
  0.00000000E+00  0.00000000E+00  0.00000000E+00
  0.00000000E+00  0.00000000E+00  0.00000000E+00
  0.00000000E+00  0.00000000E+00  0.00000000E+00
  0.00000000E+00  0.00000000E+00  0.00000000E+00
  0.00000000E+00  0.00000000E+00  0.00000000E+00
  0.00000000E+00  0.00000000E+00  0.00000000E+00
  0.00000000E+00  0.00000000E+00  0.00000000E+00
  0.00000000E+00  0.00000000E+00  0.00000000E+00
  0.00000000E+00  0.00000000E+00  0.00000000E+00
  0.00000000E+00  0.00000000E+00  0.00000000E+00
  0.00000000E+00  0.00000000E+00  0.00000000E+00
  0.00000000E+00  0.00000000E+00  0.00000000E+00
  0.00000000E+00  0.00000000E+00  0.00000000E+00
  0.00000000E+00  0.00000000E+00  0.00000000E+00
  0.00000000E+00  0.00000000E+00  0.00000000E+00
  0.00000000E+00  0.00000000E+00  0.00000000E+00
  0.00000000E+00  0.00000000E+00  0.00000000E+00
  0.00000000E+00  0.00000000E+00  0.00000000E+00
  0.00000000E+00  0.00000000E+00  0.00000000E+00
  0.00000000E+00  0.00000000E+00  0.00000000E+00
  0.00000000E+00  0.00000000E+00  0.00000000E+00
  0.00000000E+00  0.00000000E+00  0.00000000E+00
  0.00000000E+00  0.00000000E+00  0.00000000E+00
  0.00000000E+00  0.00000000E+00  0.00000000E+00
  0.00000000E+00  0.00000000E+00  0.00000000E+00
  0.00000000E+00  0.00000000E+00  0.00000000E+00
  0.00000000E+00  0.00000000E+00  0.00000000E+00
  0.00000000E+00  0.00000000E+00  0.00000000E+00
  0.00000000E+00  0.00000000E+00  0.00000000E+00
  0.00000000E+00  0.00000000E+00  0.00000000E+00
  0.00000000E+00  0.00000000E+00  0.00000000E+00
  0.00000000E+00  0.00000000E+00  0.00000000E+00
  0.00000000E+00  0.00000000E+00  0.00000000E+00
  0.00000000E+00  0.00000000E+00  0.00000000E+00
  0.00000000E+00  0.00000000E+00  0.00000000E+00
  0.00000000E+00  0.00000000E+00  0.00000000E+00
  0.00000000E+00  0.00000000E+00  0.00000000E+00
  0.00000000E+00  0.00000000E+00  0.00000000E+00
  0.00000000E+00  0.00000000E+00  0.00000000E+00
  0.00000000E+00  0.00000000E+00  0.00000000E+00
  0.00000000E+00  0.00000000E+00  0.00000000E+00
  0.00000000E+00  0.00000000E+00  0.00000000E+00
  0.00000000E+00  0.00000000E+00  0.00000000E+00
  0.00000000E+00  0.00000000E+00  0.00000000E+00
  0.00000000E+00  0.00000000E+00  0.00000000E+00
  0.00000000E+00  0.00000000E+00  0.00000000E+00
  0.00000000E+00  0.00000000E+00  0.00000000E+00
  0.00000000E+00  0.00000000E+00  0.00000000E+00
  0.00000000E+00  0.00000000E+00  0.00000000E+00
  0.00000000E+00  0.00000000E+00  0.00000000E+00
  0.00000000E+00  0.00000000E+00  0.00000000E+00
  0.00000000E+00  0.00000000E+00  0.00000000E+00
  0.00000000E+00  0.00000000E+00  0.00000000E+00
  0.00000000E+00  0.00000000E+00  0.00000000E+00
  0.00000000E+00  0.00000000E+00  0.00000000E+00
  0.00000000E+00  0.00000000E+00  0.00000000E+00
  0.00000000E+00  0.00000000E+00  0.00000000E+00
  0.00000000E+00  0.00000000E+00  0.00000000E+00
  0.00000000E+00  0.00000000E+00  0.00000000E+00
  0.00000000E+00  0.00000000E+00  0.00000000E+00
  0.00000000E+00  0.00000000E+00  0.00000000E+00
  0.00000000E+00  0.00000000E+00  0.00000000E+00
  0.00000000E+00  0.00000000E+00  0.00000000E+00
  0.00000000E+00  0.00000000E+00  0.00000000E+00
  0.00000000E+00  0.00000000E+00  0.00000000E+00
  0.00000000E+00  0.00000000E+00  0.00000000E+00
  0.00000000E+00  0.00000000E+00  0.00000000E+00
  0.00000000E+00  0.00000000E+00  0.00000000E+00
  0.00000000E+00  0.00000000E+00  0.00000000E+00
  0.00000000E+00  0.00000000E+00  0.00000000E+00
  0.00000000E+00  0.00000000E+00  0.00000000E+00
  0.00000000E+00  0.00000000E+00  0.00000000E+00
  0.00000000E+00  0.00000000E+00  0.00000000E+00
  0.00000000E+00  0.00000000E+00  0.00000000E+00
  0.00000000E+00  0.00000000E+00  0.00000000E+00
  0.00000000E+00  0.00000000E+00  0.00000000E+00
  0.00000000E+00  0.00000000E+00  0.00000000E+00
  0.00000000E+00  0.00000000E+00  0.00000000E+00
  0.00000000E+00  0.00000000E+00  0.00000000E+00
  0.00000000E+00  0.00000000E+00  0.00000000E+00
  0.00000000E+00  0.00000000E+00  0.00000000E+00
  0.00000000E+00  0.00000000E+00  0.00000000E+00
  0.00000000E+00  0.00000000E+00  0.00000000E+00
  0.00000000E+00  0.00000000E+00  0.00000000E+00
  0.00000000E+00  0.00000000E+00  0.00000000E+00
  0.00000000E+00  0.00000000E+00  0.00000000E+00
  0.00000000E+00  0.00000000E+00  0.00000000E+00
  0.00000000E+00  0.00000000E+00  0.00000000E+00
  0.00000000E+00  0.00000000E+00  0.00000000E+00
  0.00000000E+00  0.00000000E+00  0.00000000E+00
  0.00000000E+00  0.00000000E+00  0.00000000E+00
  0.00000000E+00  0.00000000E+00  0.00000000E+00
  0.00000000E+00  0.00000000E+00  0.00000000E+00
  0.00000000E+00  0.00000000E+00  0.00000000E+00
  0.00000000E+00  0.00000000E+00  0.00000000E+00
  0.00000000E+00  0.00000000E+00  0.00000000E+00
  0.00000000E+00  0.00000000E+00  0.00000000E+00
  0.00000000E+00  0.00000000E+00  0.00000000E+00
  0.00000000E+00  0.00000000E+00  0.00000000E+00
  0.00000000E+00  0.00000000E+00  0.00000000E+00
  0.00000000E+00  0.00000000E+00  0.00000000E+00
  0.00000000E+00  0.00000000E+00  0.00000000E+00
  0.00000000E+00  0.00000000E+00  0.00000000E+00
  0.00000000E+00  0.00000000E+00  0.00000000E+00
  0.00000000E+00  0.00000000E+00  0.00000000E+00
  0.00000000E+00  0.00000000E+00  0.00000000E+00
  0.00000000E+00  0.00000000E+00  0.00000000E+00
  0.00000000E+00  0.00000000E+00  0.00000000E+00
  0.00000000E+00  0.00000000E+00  0.00000000E+00
  0.00000000E+00  0.00000000E+00  0.00000000E+00
  0.00000000E+00  0.00000000E+00  0.00000000E+00
  0.00000000E+00  0.00000000E+00  0.00000000E+00
  0.00000000E+00  0.00000000E+00  0.00000000E+00
  0.00000000E+00  0.00000000E+00  0.00000000E+00
  0.00000000E+00  0.00000000E+00  0.00000000E+00
  0.00000000E+00  0.00000000E+00  0.00000000E+00
  0.00000000E+00  0.00000000E+00  0.00000000E+00
  0.00000000E+00  0.00000000E+00  0.00000000E+00
  0.00000000E+00  0.00000000E+00  0.00000000E+00
  0.00000000E+00  0.00000000E+00  0.00000000E+00
  0.00000000E+00  0.00000000E+00  0.00000000E+00
  0.00000000E+00  0.00000000E+00  0.00000000E+00
  0.00000000E+00  0.00000000E+00  0.00000000E+00
  0.00000000E+00  0.00000000E+00  0.00000000E+00
  0.00000000E+00  0.00000000E+00  0.00000000E+00
  0.00000000E+00  0.00000000E+00  0.00000000E+00
  0.00000000E+00  0.00000000E+00  0.00000000E+00
  0.00000000E+00  0.00000000E+00  0.00000000E+00
  0.00000000E+00  0.00000000E+00  0.00000000E+00
  0.00000000E+00  0.00000000E+00  0.00000000E+00
  0.00000000E+00  0.00000000E+00  0.00000000E+00
  0.00000000E+00  0.00000000E+00  0.00000000E+00
  0.00000000E+00  0.00000000E+00  0.00000000E+00
  0.00000000E+00  0.00000000E+00  0.00000000E+00
  0.00000000E+00  0.00000000E+00  0.00000000E+00
  0.00000000E+00  0.00000000E+00  0.00000000E+00
