In48 Ga6 Cu30 Ag24 Se108                
   1.0000000000000000     
    16.3634577441485014   -0.0001462966789915   -7.3458582347323951
    -3.3224170336476306   16.0470373113373554   -7.3643214486552839
     0.0143483799952199    0.0194663118067400   21.9377941557239957
   In   Ga   Cu   Ag   Se
    48     6    30    24   108
Direct
  0.1636811197986958  0.4934167803285874  0.9989120594829473
  0.4980223340484855  0.4924616092660514  0.9957482283803571
  0.8366813726402071  0.4905970061735090  0.9988420888753851
  0.1677849762630004  0.8340859167372798  0.0001208034536901
  0.4994782447724546  0.8344871035257313  0.9984293258672352
  0.8324339583240743  0.8371847025655867  0.0013654051224989
  0.1671084558861011  0.1700689893435197  0.9980896578797314
  0.5026649237094674  0.1702642933595655  0.0011375590142606
  0.8302328508490007  0.1734263531593569  0.0009346008128048
  0.1650417773580344  0.5018192922218176  0.3335396568385747
  0.4984088410203924  0.5021376865893927  0.3354893480983776
  0.1650124079765050  0.8248281051319850  0.3336415066312242
  0.5013279965892181  0.8269452121914540  0.3378298233581774
  0.8353822003636324  0.8321358565238910  0.3345579462448995
  0.4993922995823610  0.1748080229264559  0.3342427710733062
  0.8381888378392972  0.1713784841418899  0.3350067968519070
  0.1660372982380380  0.5023048130140495  0.6648993118070905
  0.4997752904967143  0.5028194274811995  0.6679121132423873
  0.1665871683824207  0.8314351943862235  0.6663380522318505
  0.4952419527420062  0.8296410891817274  0.6639188242200404
  0.8351187804990161  0.8316309209432120  0.6649807673948374
  0.1665665851708269  0.1659595643104836  0.6669035493991586
  0.4963188175633988  0.1659055778212988  0.6660570046725311
  0.8342617566551596  0.1645372255048301  0.6661197602514193
  0.2504201413597613  0.4167868647591249  0.1681660861928265
  0.5888283935068870  0.4158860373618793  0.1689300779995619
  0.2491502573451925  0.7440675705233772  0.1671455870719498
  0.5818431415226470  0.7437968040345879  0.1672991464895119
  0.9206117613221991  0.7468457835147433  0.1697881003847499
  0.2509609020791714  0.0937642915469326  0.1705321348848514
  0.5847063021980432  0.0915625892457257  0.1677046605528005
  0.9171795185260336  0.0903481828775767  0.1700623947297188
  0.2494288040255057  0.4203558206854510  0.4980783712032562
  0.5836937502976411  0.4222368988916898  0.5030466374589153
  0.9185042730685140  0.4255274677218708  0.5019594164039347
  0.2504110213520789  0.7473999261492281  0.5008603869519774
  0.5829755710160569  0.7463035923093102  0.5005448794555534
  0.9156802042508829  0.7439426969809944  0.4975949713218313
  0.2521853546927204  0.0810388904450718  0.4969180669894868
  0.5785235678350844  0.0807286744127538  0.4987451800771936
  0.9178416922025434  0.0829008758728875  0.5014383409704450
  0.2494741021208213  0.4139140078705807  0.8343040890098052
  0.2490576354142675  0.7519655718296150  0.8317527832397573
  0.5809402322236608  0.7537687918798852  0.8310537610801489
  0.9142570239152832  0.7477027564894669  0.8279130460531121
  0.2509320882281258  0.0816751862658123  0.8298873806201996
  0.5788952863850696  0.0845402265938446  0.8319523578904011
  0.9173873344238643  0.0868485507378267  0.8346458739573777
  0.8379854074982234  0.5004664851461342  0.3348256996954078
  0.1661125636237912  0.1742807273934375  0.3359516913962750
  0.8382472525000111  0.5025976173672575  0.6668722881069584
  0.9140637639308196  0.4171411592581293  0.1671469402960852
  0.5863473005771098  0.4082537755895288  0.8343263480003316
  0.9156544058894696  0.4114657300277997  0.8274240667488471
  0.9952722826154314  0.3392985415105798  0.0006894846293690
  0.3368786241413062  0.3286292637819059  0.9996707268534735
  0.6650717056519611  0.3302333476431372  0.9962397811638439
  0.3332043765494674  0.6653245653187625  0.9999440553122341
  0.6650764137744360  0.0093824455257518  0.0021795908858024
  0.9969328757519520  0.3422011355936334  0.3323925090452704
  0.3365828158335873  0.3366209010018082  0.3389352540813704
  0.9987008027474431  0.6544814405019608  0.3305930857075197
  0.3298825166261423  0.6661797355637162  0.3364906438095687
  0.6732532172523378  0.6657878711399761  0.3411353136550233
  0.0036849338693727  0.0028921452074826  0.3343530416495142
  0.9981317249239154  0.3365792715794953  0.6669621463138071
  0.0001072288978676  0.6678671290469111  0.6649846208520245
  0.3307341880548478  0.6678315123903360  0.6632294963272258
  0.6673121315306645  0.6617337630914832  0.6602399518819624
  0.9952037756267487  0.9947620748508399  0.6644786603261892
  0.3333735448896036  0.9988675477326723  0.6668366538780006
  0.0830486100193184  0.5774871494640550  0.1691459070399617
  0.4118480001797309  0.2551830224426155  0.1669797614276831
  0.7560150891443769  0.2575325035251197  0.1663339555121226
  0.0811317802643217  0.5836199553589907  0.4982361395164716
  0.4164207262066597  0.5839117499251785  0.5019483781894039
  0.7521450714012801  0.5848972323860124  0.5036340531425409
  0.4142499402447868  0.9092714146267653  0.5003688703847686
  0.7536896094391423  0.9138572761907398  0.5000615183873123
  0.4117976505764744  0.2522198788185293  0.4943882453170190
  0.0808661782564428  0.9160004340205958  0.8267808827690857
  0.4178003201446856  0.9177683405081325  0.8308111164334591
  0.4212038053666518  0.2483514073226871  0.8360297906703664
  0.7521646904731014  0.2537157039968889  0.8361619249823633
  0.9976949626866798  0.6602652135827896  0.9980634117536979
  0.6665029085306600  0.6585331873686613  0.9969417344701412
  0.0033218019310723  0.9959276300727922  0.9949812848183228
  0.3339087552371680  0.0047111290538737  0.9992700952593623
  0.6710660119616705  0.3392670100852513  0.3301018712280950
  0.3299747321914452  0.0009259842714329  0.3352726677765006
  0.6668672775310114  0.9981276757841187  0.3364567547052104
  0.3371060357005931  0.3316745075954515  0.6702917030700917
  0.6654460501026094  0.3404881181447834  0.6718019137584363
  0.6668519816925595  0.0006052627426243  0.6629496382760749
  0.4160641195034884  0.5794626981174886  0.1638689126674890
  0.7551482344778364  0.5759731966801667  0.1707965572781873
  0.0861703715027176  0.9208813106190163  0.1727565609066772
  0.4188568937506503  0.9141519001191796  0.1669756213007076
  0.7498898035914792  0.9206370296377884  0.1643947595834376
  0.0789884032807180  0.2576274896160697  0.1706187825528929
  0.0847687078107029  0.9137557219977452  0.4989289183193932
  0.0808951574803345  0.2466661139612896  0.4964773122274622
  0.7533307030133045  0.2581917167664116  0.5071102405829606
  0.0827743951157913  0.5840285364052420  0.8313416419190318
  0.4128289611200913  0.5790907982135352  0.8309173675814776
  0.7450992070380806  0.5779986010615445  0.8287533245553647
  0.7478012596514603  0.9137218347643383  0.8338282946305142
  0.0805500830209240  0.2468391030597203  0.8298642505182059
  0.1148852625323755  0.4567281962533940  0.0851328743070994
  0.4540069468057624  0.4468411492322346  0.0786848898144186
  0.7889358489140648  0.4450010966180926  0.0809913571846081
  0.1231509776381046  0.7914577775353138  0.0844503396647482
  0.4520974871494658  0.7822343826839671  0.0778426188083543
  0.7924181563606680  0.7875264985779822  0.0838482894521277
  0.1223287096370314  0.1312851503803785  0.0835919421144311
  0.4548570230685769  0.1393507225843393  0.0896472262258143
  0.7827897685318348  0.1301035258290923  0.0846524350040809
  0.1143640661487595  0.4616323764627452  0.4167267037834392
  0.4491301104303886  0.4615431097815161  0.4200405991282565
  0.7932232942572739  0.4721260916851548  0.4181769063280072
  0.1141487312616718  0.7755486004721348  0.4112442540725780
  0.4470346039416455  0.7869461011345109  0.4192302779239085
  0.7847918469635644  0.7908791861795663  0.4177900051554033
  0.1226871832750405  0.1206102169608769  0.4079716679226664
  0.4542368418337546  0.1338000864830988  0.4192134918463069
  0.7920134002280363  0.1295274011610488  0.4186403664284200
  0.1196644098510049  0.4505214508505304  0.7443412870484138
  0.4701875027949356  0.4548890356350626  0.7576752510153995
  0.8021176207952436  0.4595288571587162  0.7480113087791835
  0.1137850509095841  0.7914601724319823  0.7487393088464458
  0.4445811400092765  0.7914444619357255  0.7476609325215051
  0.7810886057045963  0.7845184733931205  0.7422616488569886
  0.1141976466561232  0.1128629921021371  0.7417761298427479
  0.4447952390328922  0.1241919258854409  0.7486709417545327
  0.7881205704616434  0.1336582707439149  0.7551134934003016
  0.2914863153206539  0.6229512518268550  0.0757716275403197
  0.6273375674197155  0.6175525891095859  0.0843576180265941
  0.9669839184819082  0.6175718960728815  0.0889230494773301
  0.2932278727575195  0.9639334240168935  0.0868210213876495
  0.6256895836449274  0.9653511151756149  0.0788448672455644
  0.9603912318475594  0.9636326278294973  0.0849164905701230
  0.3007542227360176  0.2937967299252975  0.0823995767315893
  0.6381631939026278  0.2933379514300896  0.0826455139779085
  0.9573929910864649  0.3043037752536861  0.0839472825391283
  0.3014751310347776  0.6240188339566117  0.4190467614760749
  0.6359967444929211  0.6227416169669837  0.4198725257810523
  0.9629227571237209  0.6169304573240311  0.4119512437337747
  0.2976544053748285  0.9480328068709980  0.4199630901574452
  0.6319169529872184  0.9532808999710909  0.4238886318058022
  0.9631818997960906  0.9621347006864411  0.4122966447678849
  0.2932983445794903  0.2896376259827989  0.4130417480683093
  0.6292526332455850  0.2991343170343583  0.4176661204809093
  0.9628709985624937  0.3022566089720584  0.4137658364816588
  0.2948668139579524  0.6287165074780603  0.7442362085238301
  0.6280802994615158  0.6303768252288435  0.7436242139085820
  0.9572081492282791  0.6223944964661001  0.7395615345920277
  0.3014754149182437  0.9560247808106297  0.7479557255739735
  0.6221795026304875  0.9574167757110814  0.7473830264191790
  0.9653635045396456  0.9598338848764456  0.7501177786560049
  0.3013540477515804  0.2872734642921912  0.7574801605873489
  0.6303491815849824  0.2906010564576746  0.7576678679656652
  0.9589816752722129  0.2975123603665253  0.7457922245350304
  0.2175808689360821  0.3740868401517616  0.2584166373125854
  0.5321485766687744  0.3699187181306769  0.2454641250162908
  0.8755511447432553  0.3765970426112375  0.2499371564509190
  0.2060142457269123  0.6921011023855357  0.2492062871094873
  0.5518447319144144  0.6999004664134532  0.2586201569252964
  0.8841534198652994  0.7025715274471693  0.2574287614036095
  0.2065030626773918  0.0556759028781286  0.2571422149931024
  0.5431206045746109  0.0460149910993195  0.2516505847713546
  0.8844126174375830  0.0407771888761062  0.2563412756238463
  0.2110165213836481  0.3746671507850579  0.5833224026354245
  0.5320015553027773  0.3690822250953687  0.5783534782974655
  0.8832908312018546  0.3835184264045282  0.5919895481552828
  0.2054209124846409  0.6970526797148224  0.5816963330715197
  0.5412629302931222  0.6966394547917929  0.5834091647417665
  0.8759280664182896  0.6975213781888456  0.5830603972458945
  0.2161491077348572  0.0391153798029507  0.5866076764293737
  0.5288344877883873  0.0310577904792240  0.5769305845289097
  0.8747863365341217  0.0296111226871716  0.5828126226856440
  0.2165403088009299  0.3672695193341724  0.9225195198320009
  0.5439579647069905  0.3634365259238095  0.9117993415797514
  0.8772476160545679  0.3648066838791806  0.9073759837505833
  0.2171496646590114  0.7056572989167691  0.9208508028497207
  0.5421931183082691  0.7062995557070977  0.9149617078606269
  0.8732728771383549  0.7087005383843277  0.9153962568540948
  0.1986297526418781  0.0348707839240987  0.9084870718929281
  0.5399426904383517  0.0342036640541536  0.9162595141375718
  0.8729627239773734  0.0438406078879083  0.9178873317805696
  0.0334579525954553  0.5405771613434567  0.2443909106163744
  0.3715282260042514  0.5521633676435940  0.2559614034785085
  0.7156992287488890  0.5468965363683225  0.2640375626277347
  0.0420346015812427  0.8810784795186706  0.2580457306518014
  0.3764635681802062  0.8724358807738852  0.2529619372531613
  0.7076651315696338  0.8726435236377199  0.2475214222604194
  0.0445825815296175  0.2212882377943686  0.2631026512113479
  0.3756202735385301  0.2260637431585621  0.2521317882868601
  0.7163878749668058  0.2155180173964695  0.2444840071365348
  0.0440508961347490  0.5565052755942261  0.5843614654410985
  0.3744465458330950  0.5535616090269500  0.5844067584717720
  0.7174650187542539  0.5475198247684574  0.5873951828713331
  0.0373764495151931  0.8788776301841352  0.5862141136583006
  0.3719155480480225  0.8828064536955722  0.5834547606206755
  0.7107627260265232  0.8753182506200474  0.5773172570214840
  0.0392392720067036  0.2177858958185226  0.5892752320595420
  0.3771807785418204  0.2117476895152421  0.5752235599682081
  0.7053492740417582  0.2084235701406811  0.5850921578166535
  0.0345576346804961  0.5304207882278007  0.9089733861399623
  0.3716475880695711  0.5469513668162875  0.9211770848649223
  0.7048502415196367  0.5277507029936430  0.9113174956107741
  0.0445696924240835  0.8738490587163383  0.9061681539692259
  0.3768365996929290  0.8807684125623112  0.9104485425936062
  0.7033746660784743  0.8875356610157823  0.9249752960470161
  0.0380097451445067  0.2216558356262794  0.9238963747955040
  0.3757519270805219  0.2160481546494495  0.9156089890605585
  0.7050170718714739  0.2174223057934555  0.9131779929675758

  0.00000000E+00  0.00000000E+00  0.00000000E+00
  0.00000000E+00  0.00000000E+00  0.00000000E+00
  0.00000000E+00  0.00000000E+00  0.00000000E+00
  0.00000000E+00  0.00000000E+00  0.00000000E+00
  0.00000000E+00  0.00000000E+00  0.00000000E+00
  0.00000000E+00  0.00000000E+00  0.00000000E+00
  0.00000000E+00  0.00000000E+00  0.00000000E+00
  0.00000000E+00  0.00000000E+00  0.00000000E+00
  0.00000000E+00  0.00000000E+00  0.00000000E+00
  0.00000000E+00  0.00000000E+00  0.00000000E+00
  0.00000000E+00  0.00000000E+00  0.00000000E+00
  0.00000000E+00  0.00000000E+00  0.00000000E+00
  0.00000000E+00  0.00000000E+00  0.00000000E+00
  0.00000000E+00  0.00000000E+00  0.00000000E+00
  0.00000000E+00  0.00000000E+00  0.00000000E+00
  0.00000000E+00  0.00000000E+00  0.00000000E+00
  0.00000000E+00  0.00000000E+00  0.00000000E+00
  0.00000000E+00  0.00000000E+00  0.00000000E+00
  0.00000000E+00  0.00000000E+00  0.00000000E+00
  0.00000000E+00  0.00000000E+00  0.00000000E+00
  0.00000000E+00  0.00000000E+00  0.00000000E+00
  0.00000000E+00  0.00000000E+00  0.00000000E+00
  0.00000000E+00  0.00000000E+00  0.00000000E+00
  0.00000000E+00  0.00000000E+00  0.00000000E+00
  0.00000000E+00  0.00000000E+00  0.00000000E+00
  0.00000000E+00  0.00000000E+00  0.00000000E+00
  0.00000000E+00  0.00000000E+00  0.00000000E+00
  0.00000000E+00  0.00000000E+00  0.00000000E+00
  0.00000000E+00  0.00000000E+00  0.00000000E+00
  0.00000000E+00  0.00000000E+00  0.00000000E+00
  0.00000000E+00  0.00000000E+00  0.00000000E+00
  0.00000000E+00  0.00000000E+00  0.00000000E+00
  0.00000000E+00  0.00000000E+00  0.00000000E+00
  0.00000000E+00  0.00000000E+00  0.00000000E+00
  0.00000000E+00  0.00000000E+00  0.00000000E+00
  0.00000000E+00  0.00000000E+00  0.00000000E+00
  0.00000000E+00  0.00000000E+00  0.00000000E+00
  0.00000000E+00  0.00000000E+00  0.00000000E+00
  0.00000000E+00  0.00000000E+00  0.00000000E+00
  0.00000000E+00  0.00000000E+00  0.00000000E+00
  0.00000000E+00  0.00000000E+00  0.00000000E+00
  0.00000000E+00  0.00000000E+00  0.00000000E+00
  0.00000000E+00  0.00000000E+00  0.00000000E+00
  0.00000000E+00  0.00000000E+00  0.00000000E+00
  0.00000000E+00  0.00000000E+00  0.00000000E+00
  0.00000000E+00  0.00000000E+00  0.00000000E+00
  0.00000000E+00  0.00000000E+00  0.00000000E+00
  0.00000000E+00  0.00000000E+00  0.00000000E+00
  0.00000000E+00  0.00000000E+00  0.00000000E+00
  0.00000000E+00  0.00000000E+00  0.00000000E+00
  0.00000000E+00  0.00000000E+00  0.00000000E+00
  0.00000000E+00  0.00000000E+00  0.00000000E+00
  0.00000000E+00  0.00000000E+00  0.00000000E+00
  0.00000000E+00  0.00000000E+00  0.00000000E+00
  0.00000000E+00  0.00000000E+00  0.00000000E+00
  0.00000000E+00  0.00000000E+00  0.00000000E+00
  0.00000000E+00  0.00000000E+00  0.00000000E+00
  0.00000000E+00  0.00000000E+00  0.00000000E+00
  0.00000000E+00  0.00000000E+00  0.00000000E+00
  0.00000000E+00  0.00000000E+00  0.00000000E+00
  0.00000000E+00  0.00000000E+00  0.00000000E+00
  0.00000000E+00  0.00000000E+00  0.00000000E+00
  0.00000000E+00  0.00000000E+00  0.00000000E+00
  0.00000000E+00  0.00000000E+00  0.00000000E+00
  0.00000000E+00  0.00000000E+00  0.00000000E+00
  0.00000000E+00  0.00000000E+00  0.00000000E+00
  0.00000000E+00  0.00000000E+00  0.00000000E+00
  0.00000000E+00  0.00000000E+00  0.00000000E+00
  0.00000000E+00  0.00000000E+00  0.00000000E+00
  0.00000000E+00  0.00000000E+00  0.00000000E+00
  0.00000000E+00  0.00000000E+00  0.00000000E+00
  0.00000000E+00  0.00000000E+00  0.00000000E+00
  0.00000000E+00  0.00000000E+00  0.00000000E+00
  0.00000000E+00  0.00000000E+00  0.00000000E+00
  0.00000000E+00  0.00000000E+00  0.00000000E+00
  0.00000000E+00  0.00000000E+00  0.00000000E+00
  0.00000000E+00  0.00000000E+00  0.00000000E+00
  0.00000000E+00  0.00000000E+00  0.00000000E+00
  0.00000000E+00  0.00000000E+00  0.00000000E+00
  0.00000000E+00  0.00000000E+00  0.00000000E+00
  0.00000000E+00  0.00000000E+00  0.00000000E+00
  0.00000000E+00  0.00000000E+00  0.00000000E+00
  0.00000000E+00  0.00000000E+00  0.00000000E+00
  0.00000000E+00  0.00000000E+00  0.00000000E+00
  0.00000000E+00  0.00000000E+00  0.00000000E+00
  0.00000000E+00  0.00000000E+00  0.00000000E+00
  0.00000000E+00  0.00000000E+00  0.00000000E+00
  0.00000000E+00  0.00000000E+00  0.00000000E+00
  0.00000000E+00  0.00000000E+00  0.00000000E+00
  0.00000000E+00  0.00000000E+00  0.00000000E+00
  0.00000000E+00  0.00000000E+00  0.00000000E+00
  0.00000000E+00  0.00000000E+00  0.00000000E+00
  0.00000000E+00  0.00000000E+00  0.00000000E+00
  0.00000000E+00  0.00000000E+00  0.00000000E+00
  0.00000000E+00  0.00000000E+00  0.00000000E+00
  0.00000000E+00  0.00000000E+00  0.00000000E+00
  0.00000000E+00  0.00000000E+00  0.00000000E+00
  0.00000000E+00  0.00000000E+00  0.00000000E+00
  0.00000000E+00  0.00000000E+00  0.00000000E+00
  0.00000000E+00  0.00000000E+00  0.00000000E+00
  0.00000000E+00  0.00000000E+00  0.00000000E+00
  0.00000000E+00  0.00000000E+00  0.00000000E+00
  0.00000000E+00  0.00000000E+00  0.00000000E+00
  0.00000000E+00  0.00000000E+00  0.00000000E+00
  0.00000000E+00  0.00000000E+00  0.00000000E+00
  0.00000000E+00  0.00000000E+00  0.00000000E+00
  0.00000000E+00  0.00000000E+00  0.00000000E+00
  0.00000000E+00  0.00000000E+00  0.00000000E+00
  0.00000000E+00  0.00000000E+00  0.00000000E+00
  0.00000000E+00  0.00000000E+00  0.00000000E+00
  0.00000000E+00  0.00000000E+00  0.00000000E+00
  0.00000000E+00  0.00000000E+00  0.00000000E+00
  0.00000000E+00  0.00000000E+00  0.00000000E+00
  0.00000000E+00  0.00000000E+00  0.00000000E+00
  0.00000000E+00  0.00000000E+00  0.00000000E+00
  0.00000000E+00  0.00000000E+00  0.00000000E+00
  0.00000000E+00  0.00000000E+00  0.00000000E+00
  0.00000000E+00  0.00000000E+00  0.00000000E+00
  0.00000000E+00  0.00000000E+00  0.00000000E+00
  0.00000000E+00  0.00000000E+00  0.00000000E+00
  0.00000000E+00  0.00000000E+00  0.00000000E+00
  0.00000000E+00  0.00000000E+00  0.00000000E+00
  0.00000000E+00  0.00000000E+00  0.00000000E+00
  0.00000000E+00  0.00000000E+00  0.00000000E+00
  0.00000000E+00  0.00000000E+00  0.00000000E+00
  0.00000000E+00  0.00000000E+00  0.00000000E+00
  0.00000000E+00  0.00000000E+00  0.00000000E+00
  0.00000000E+00  0.00000000E+00  0.00000000E+00
  0.00000000E+00  0.00000000E+00  0.00000000E+00
  0.00000000E+00  0.00000000E+00  0.00000000E+00
  0.00000000E+00  0.00000000E+00  0.00000000E+00
  0.00000000E+00  0.00000000E+00  0.00000000E+00
  0.00000000E+00  0.00000000E+00  0.00000000E+00
  0.00000000E+00  0.00000000E+00  0.00000000E+00
  0.00000000E+00  0.00000000E+00  0.00000000E+00
  0.00000000E+00  0.00000000E+00  0.00000000E+00
  0.00000000E+00  0.00000000E+00  0.00000000E+00
  0.00000000E+00  0.00000000E+00  0.00000000E+00
  0.00000000E+00  0.00000000E+00  0.00000000E+00
  0.00000000E+00  0.00000000E+00  0.00000000E+00
  0.00000000E+00  0.00000000E+00  0.00000000E+00
  0.00000000E+00  0.00000000E+00  0.00000000E+00
  0.00000000E+00  0.00000000E+00  0.00000000E+00
  0.00000000E+00  0.00000000E+00  0.00000000E+00
  0.00000000E+00  0.00000000E+00  0.00000000E+00
  0.00000000E+00  0.00000000E+00  0.00000000E+00
  0.00000000E+00  0.00000000E+00  0.00000000E+00
  0.00000000E+00  0.00000000E+00  0.00000000E+00
  0.00000000E+00  0.00000000E+00  0.00000000E+00
  0.00000000E+00  0.00000000E+00  0.00000000E+00
  0.00000000E+00  0.00000000E+00  0.00000000E+00
  0.00000000E+00  0.00000000E+00  0.00000000E+00
  0.00000000E+00  0.00000000E+00  0.00000000E+00
  0.00000000E+00  0.00000000E+00  0.00000000E+00
  0.00000000E+00  0.00000000E+00  0.00000000E+00
  0.00000000E+00  0.00000000E+00  0.00000000E+00
  0.00000000E+00  0.00000000E+00  0.00000000E+00
  0.00000000E+00  0.00000000E+00  0.00000000E+00
  0.00000000E+00  0.00000000E+00  0.00000000E+00
  0.00000000E+00  0.00000000E+00  0.00000000E+00
  0.00000000E+00  0.00000000E+00  0.00000000E+00
  0.00000000E+00  0.00000000E+00  0.00000000E+00
  0.00000000E+00  0.00000000E+00  0.00000000E+00
  0.00000000E+00  0.00000000E+00  0.00000000E+00
  0.00000000E+00  0.00000000E+00  0.00000000E+00
  0.00000000E+00  0.00000000E+00  0.00000000E+00
  0.00000000E+00  0.00000000E+00  0.00000000E+00
  0.00000000E+00  0.00000000E+00  0.00000000E+00
  0.00000000E+00  0.00000000E+00  0.00000000E+00
  0.00000000E+00  0.00000000E+00  0.00000000E+00
  0.00000000E+00  0.00000000E+00  0.00000000E+00
  0.00000000E+00  0.00000000E+00  0.00000000E+00
  0.00000000E+00  0.00000000E+00  0.00000000E+00
  0.00000000E+00  0.00000000E+00  0.00000000E+00
  0.00000000E+00  0.00000000E+00  0.00000000E+00
  0.00000000E+00  0.00000000E+00  0.00000000E+00
  0.00000000E+00  0.00000000E+00  0.00000000E+00
  0.00000000E+00  0.00000000E+00  0.00000000E+00
  0.00000000E+00  0.00000000E+00  0.00000000E+00
  0.00000000E+00  0.00000000E+00  0.00000000E+00
  0.00000000E+00  0.00000000E+00  0.00000000E+00
  0.00000000E+00  0.00000000E+00  0.00000000E+00
  0.00000000E+00  0.00000000E+00  0.00000000E+00
  0.00000000E+00  0.00000000E+00  0.00000000E+00
  0.00000000E+00  0.00000000E+00  0.00000000E+00
  0.00000000E+00  0.00000000E+00  0.00000000E+00
  0.00000000E+00  0.00000000E+00  0.00000000E+00
  0.00000000E+00  0.00000000E+00  0.00000000E+00
  0.00000000E+00  0.00000000E+00  0.00000000E+00
  0.00000000E+00  0.00000000E+00  0.00000000E+00
  0.00000000E+00  0.00000000E+00  0.00000000E+00
  0.00000000E+00  0.00000000E+00  0.00000000E+00
  0.00000000E+00  0.00000000E+00  0.00000000E+00
  0.00000000E+00  0.00000000E+00  0.00000000E+00
  0.00000000E+00  0.00000000E+00  0.00000000E+00
  0.00000000E+00  0.00000000E+00  0.00000000E+00
  0.00000000E+00  0.00000000E+00  0.00000000E+00
  0.00000000E+00  0.00000000E+00  0.00000000E+00
  0.00000000E+00  0.00000000E+00  0.00000000E+00
  0.00000000E+00  0.00000000E+00  0.00000000E+00
  0.00000000E+00  0.00000000E+00  0.00000000E+00
  0.00000000E+00  0.00000000E+00  0.00000000E+00
  0.00000000E+00  0.00000000E+00  0.00000000E+00
  0.00000000E+00  0.00000000E+00  0.00000000E+00
  0.00000000E+00  0.00000000E+00  0.00000000E+00
  0.00000000E+00  0.00000000E+00  0.00000000E+00
  0.00000000E+00  0.00000000E+00  0.00000000E+00
  0.00000000E+00  0.00000000E+00  0.00000000E+00
  0.00000000E+00  0.00000000E+00  0.00000000E+00
  0.00000000E+00  0.00000000E+00  0.00000000E+00
  0.00000000E+00  0.00000000E+00  0.00000000E+00
  0.00000000E+00  0.00000000E+00  0.00000000E+00
  0.00000000E+00  0.00000000E+00  0.00000000E+00
  0.00000000E+00  0.00000000E+00  0.00000000E+00
  0.00000000E+00  0.00000000E+00  0.00000000E+00
  0.00000000E+00  0.00000000E+00  0.00000000E+00
