In30 Ga24 Cu48 Ag6 Se108                
   1.0000000000000000     
    15.9388157043775092   -0.0011721573810287   -7.1289676230650194
    -3.1635246571627076   15.6388123636934360   -7.0760047268331991
     0.0046965890088513   -0.0465819063506811   21.3692955726543978
   In   Ga   Cu   Ag   Se
    30    24    48     6   108
Direct
  0.1656175134411484  0.4951253472720154  0.9978210318932028
  0.4979477632887139  0.4963276330336086  0.9987477295075848
  0.1633798195399976  0.8337300117717277  0.9998456284784680
  0.5017142171883293  0.8359148284727169  0.9980560077916181
  0.8329935993067252  0.8327127370435434  0.9981307637613810
  0.1608323665260940  0.1688892647999580  0.9985493172685693
  0.8313687585887095  0.1650408477606007  0.9956462846473215
  0.4986913896237724  0.5002826081789493  0.3322641864800389
  0.5028417252085831  0.8337781239260451  0.3365691904420842
  0.8352391953174703  0.8341848188037062  0.3379904145529196
  0.1674858750435888  0.1693161214389036  0.3375166492559316
  0.8340183731840369  0.4979219322262836  0.6654988435187903
  0.1628842779959214  0.8346971462814352  0.6646473248257934
  0.8336739875831043  0.8355748369873837  0.6659218992953626
  0.1659151052195469  0.1668783363184900  0.6642562622520174
  0.8328532025565067  0.1676524908510260  0.6655744802123849
  0.5879456124277667  0.4153416346990113  0.1680810351762929
  0.9175827100140026  0.4185933976542131  0.1691117706627026
  0.2466303315200307  0.7509786640665581  0.1703929735330476
  0.5842355930350820  0.7448828003925172  0.1662976421701288
  0.9202792966172382  0.7453912085522063  0.1673390023973766
  0.2499109524229723  0.0850967912227318  0.1686517134568462
  0.9184475137010537  0.0884559787895043  0.1688245795899874
  0.5830960593544177  0.4167605267047136  0.5003151360886875
  0.2478857955387781  0.7486508261859086  0.4982572437657495
  0.5839572619576501  0.7494620710132551  0.5031034642360908
  0.5855883904849435  0.4124502509670833  0.8304779962205942
  0.2425944016076187  0.7480340309977365  0.8308643466696708
  0.9155053980937780  0.7484288451382923  0.8307567261677775
  0.2521710044612107  0.0857467422831064  0.8346793358247808
  0.8338798681582560  0.4968118676740119  0.9975375437127312
  0.5051687334905779  0.1674749717700692  0.9986019436819120
  0.1692915245238140  0.4975850874762671  0.3356668298976473
  0.8354436647090751  0.5010024802056989  0.3367860960721032
  0.1634375765518641  0.8373659501612707  0.3353399846767928
  0.5035206507209580  0.1696215387593583  0.3367327284845132
  0.8369418671157476  0.1704687180636100  0.3371901709593956
  0.1618910425501383  0.4931735282580902  0.6629211950559011
  0.5008853405297842  0.4965354959430570  0.6653158035674807
  0.5037533190785410  0.8354402754683861  0.6718470075203982
  0.4999971976091402  0.1666231283773598  0.6645315588873117
  0.2457669906619699  0.4179327560315969  0.1672179353680150
  0.5877781485927613  0.0901994779917601  0.1685797802354543
  0.2512566677258192  0.4159355571213013  0.5021961300795255
  0.9173086739531371  0.4146000230283420  0.4987808875754567
  0.9160744184037100  0.7477183511920700  0.4991904200347648
  0.2497780107500631  0.0829591420751967  0.5015875156765617
  0.5846207565565393  0.0890397777753904  0.5012920074442562
  0.9176379672023813  0.0859275475769437  0.4986638650200277
  0.2476880572141908  0.4117292615580226  0.8289616419869361
  0.9139716481569238  0.4167019029400478  0.8331327817003071
  0.5882166371918487  0.7500339452906246  0.8319289711177547
  0.5808834500525961  0.0846422558159503  0.8288587201044209
  0.9155308140685179  0.0841101027318487  0.8316584238048534
  0.9967288826397080  0.3346397557939653  0.9970481676561604
  0.3331718406695643  0.3346091847427886  0.9977697794623310
  0.6674762174751763  0.3299446705512921  0.9975282656354807
  0.9967117583260148  0.6592612501302852  0.9972189788618735
  0.3268646626007694  0.6605238451578543  0.9976765695718655
  0.6697448119929561  0.6614899621033530  0.9975373330082178
  0.9977570969729186  0.0030036156973452  0.9992395995463568
  0.3390707656423544  0.0020933537369103  0.9974753704880399
  0.6617144754112090  0.0014389794742016  0.9939015376078828
  0.0010094676863375  0.3393022720355461  0.3385634722960020
  0.3302368975413259  0.3378699640020599  0.3380673340093665
  0.6774709208499985  0.3316730694456922  0.3380825023022638
  0.0025696745370993  0.6667314981077794  0.3385906350942207
  0.3236931468430271  0.6595017758605977  0.3293934077248366
  0.6721064417027947  0.6642286629413618  0.3355465596760823
  0.0083204412888307  0.0038030137660314  0.3411139131048060
  0.3357365071645262  0.0088890041039207  0.3411313222958938
  0.6666671280483314  0.0109256908928046  0.3399086041112156
  0.9977208382200757  0.3344859271581342  0.6652628676822232
  0.3291196476665377  0.3276964685907799  0.6601616789740845
  0.6671198880149873  0.3301433093971582  0.6654686710237883
  0.0001194287050694  0.6612419353877499  0.6608292936819069
  0.6624417197870542  0.6646637663547992  0.6679560124929225
  0.9964699536307080  0.9993528397385134  0.6623386016760193
  0.3377648631440948  0.0044764423073502  0.6677978137507310
  0.6658193100329655  0.0036747375470583  0.6689187285120894
  0.0830863529450383  0.5806672808674662  0.1708708931076828
  0.4153105192957014  0.5829025813513766  0.1689240192015689
  0.7533953713709991  0.5784951569387076  0.1655552188070573
  0.0821890774606757  0.9160225823989023  0.1686450740256902
  0.0848697081683767  0.2571251450282617  0.1697983227733673
  0.7516085433482402  0.2511824070899706  0.1697609956650865
  0.0760743960275363  0.5737421823308395  0.4954494992937981
  0.4160644886447784  0.5854121185921102  0.5033683113836247
  0.7553521460002699  0.5813306709770245  0.4999994034554192
  0.0832410575732467  0.9191612473486259  0.5004978632814314
  0.7514594324431201  0.9200480399225981  0.5001879641453755
  0.0807197216803957  0.2539604999412930  0.5012010521649088
  0.4190784407234744  0.2500405967943067  0.5032522294268418
  0.7510038227039786  0.2470724282017116  0.4961882210437025
  0.0821110654622146  0.5741821313327264  0.8287572758598856
  0.7469661426605683  0.5788002824692029  0.8296527727726470
  0.0810661862934268  0.9218545376940952  0.8331151100352301
  0.4206842675120086  0.9217833184237989  0.8333509604564426
  0.7457496174349671  0.9185390707708905  0.8297523350563836
  0.0787350236942856  0.2500780003331684  0.8297307745201792
  0.4159288571646229  0.2462001870015342  0.8307991092130251
  0.7511155576183839  0.2493089904129349  0.8317230966417384
  0.3386702674834652  0.6695615749165924  0.6656507064709558
  0.4228809823334245  0.9177291418778637  0.1690530226673062
  0.7536759902403816  0.9238076371250443  0.1730354843724200
  0.4130088219102248  0.2473899725024964  0.1647480178226957
  0.4176062351426708  0.9197159557759562  0.5026709288262410
  0.4187021071756547  0.5825898405211518  0.8324092254720767
  0.1181239466876036  0.4563280322730705  0.0872999618421062
  0.4497939174724337  0.4583368064785418  0.0867565393868404
  0.7839352215997550  0.4562766818487631  0.0761870569838976
  0.1094924878977110  0.7887090406775101  0.0821929386518150
  0.4489442318757710  0.7793866772890823  0.0742301511603785
  0.7851864594845281  0.7861300288705095  0.0817901969092532
  0.1131664983129639  0.1289337196002833  0.0859261439576571
  0.4620987403453327  0.1212804976810773  0.0779668858914633
  0.7805022291192145  0.1253389996277079  0.0817700771839895
  0.1262602195387217  0.4573955864405548  0.4187047354568421
  0.4479368765442615  0.4612936629103928  0.4182677595219317
  0.7931486340876077  0.4579133786869249  0.4187942091209322
  0.1155341578998943  0.7962358657505177  0.4139654532853498
  0.4457434422620921  0.7794943529559788  0.4111283831246908
  0.7875674486516857  0.7897849051405146  0.4236279532130851
  0.1238610661075441  0.1283897983801054  0.4272095097969739
  0.4585446413257586  0.1285093705125249  0.4189074174064444
  0.7925782464119848  0.1264909970357948  0.4168525184731138
  0.1216223553628168  0.4525494587180674  0.7466437632430640
  0.4514584232719727  0.4486542101364677  0.7382447603819244
  0.7857108869633507  0.4533053660559219  0.7514670273766413
  0.1085094411437666  0.7932972306652033  0.7479398193119096
  0.4663097756994290  0.7999072993264136  0.7579419903551141
  0.7780927787711533  0.7908346788964806  0.7474692714979199
  0.1135892346357039  0.1241880319197932  0.7479950308688217
  0.4563711693484578  0.1263378739737604  0.7471321129788677
  0.7881150527162788  0.1233332666974789  0.7532413274637193
  0.2995734388650746  0.6251420110335388  0.0858390433469509
  0.6369171217274214  0.6204712416081577  0.0814551226727076
  0.9641534991825438  0.6130163366622128  0.0792847007425550
  0.2965941883868837  0.9621839580951885  0.0774380430521546
  0.6289655366529630  0.9709676975772012  0.0837048839212073
  0.9687670320312236  0.9599911810763473  0.0841931450008389
  0.2899512705002110  0.3022066204007032  0.0820293942157306
  0.6335341121656910  0.2855014760560124  0.0796106101680252
  0.9669463307047081  0.2925095512641533  0.0819817971689005
  0.2955966905123120  0.6170567542986376  0.4143397612498063
  0.6372375859266626  0.6240567244938973  0.4189291271104878
  0.9605833752255606  0.6235981167233362  0.4180786619626105
  0.2861693969195969  0.9619862750242874  0.4142894663656307
  0.6331740186553390  0.9686318996629311  0.4231284378451576
  0.9670866336884174  0.9662063745167586  0.4222239399928682
  0.3016168439500575  0.2980724560858690  0.4247617221395643
  0.6314251973621055  0.2873641982390893  0.4142996414091513
  0.9613767110700877  0.2937504567187190  0.4173828524106895
  0.2814577170546286  0.6159477832044615  0.7413536992730059
  0.6262994613501291  0.6212849662503999  0.7492586587577890
  0.9703510131827215  0.6229744856529535  0.7477952398791743
  0.3015111177507777  0.9591548546443391  0.7479609543480876
  0.6258115035100857  0.9610454181798431  0.7487730257808067
  0.9658670484892014  0.9676170057018254  0.7523665010811342
  0.3009597826340311  0.2958189568453022  0.7518169370379937
  0.6300255537383350  0.2818958918995023  0.7432264439177843
  0.9637952355557502  0.3003880784600454  0.7526902879378099
  0.2094207426410364  0.3734946881979440  0.2513546525202557
  0.5535197576132802  0.3691754329105450  0.2577257891598634
  0.8734708875635775  0.3726093959488495  0.2563957914778143
  0.2010010040319585  0.7060888083104970  0.2568871738748300
  0.5435931046815625  0.6949875531669178  0.2525233420697219
  0.8766181832617335  0.6967352034843088  0.2525412382183418
  0.2076348844193276  0.0319899964232491  0.2520059190371811
  0.5502809438115435  0.0513575152508494  0.2548083976202378
  0.8877923554479068  0.0495767222400261  0.2650205967952886
  0.2064789158540847  0.3707572925204090  0.5817711653279218
  0.5428287547615227  0.3700416875073458  0.5885123287231195
  0.8752411063117194  0.3651228934930870  0.5762419848021096
  0.1956659996690462  0.6959819766301507  0.5758867102986756
  0.5380314193153666  0.7050997137030066  0.5903396238541490
  0.8783194370348326  0.7006243687462472  0.5797279698556608
  0.2121454509912368  0.0327911686241364  0.5806271470214313
  0.5495559212128356  0.0484213437268650  0.5868328322139078
  0.8769749504904070  0.0365440584151813  0.5770557367406610
  0.2083742824160737  0.3622286440801901  0.9082656089525898
  0.5414108537084203  0.3620980153196527  0.9145464030374768
  0.8728949639350319  0.3710482499418646  0.9142202160771333
  0.2035381169645518  0.6952424301243099  0.9161255690694148
  0.5542007361048817  0.7069539642997782  0.9159453829469228
  0.8729355537997918  0.6944974214564255  0.9137240517943823
  0.2093245367428977  0.0343840513467981  0.9184136726789163
  0.5416092799602765  0.0427416226469290  0.9125310591406901
  0.8750884508288692  0.0319558976657248  0.9089288429775451
  0.0500931451180335  0.5497379550139314  0.2599969856952029
  0.3648862009504157  0.5442802344555560  0.2448340914286931
  0.7184338835397526  0.5487752397623780  0.2547677080591768
  0.0449239099371752  0.8844079602005692  0.2551493147547248
  0.3727212562833699  0.8866869837094526  0.2583652330461348
  0.7034296374141036  0.8855076286844508  0.2593836799284972
  0.0437670234225465  0.2251755824046597  0.2538397224732165
  0.3794176321611857  0.2180680525944538  0.2639206286341675
  0.7139018955360470  0.2119242962566830  0.2525180528660727
  0.0403223874126795  0.5380648162529127  0.5811320500916253
  0.3785147538707960  0.5347818058078389  0.5799671108817179
  0.7088155722323535  0.5537224703916479  0.5838374998632503
  0.0320938874850043  0.8788292310640102  0.5761535533940574
  0.3800977850270684  0.8790670946574295  0.5945340788126003
  0.7065344065636054  0.8890229328609465  0.5833594280097927
  0.0345584507393255  0.2144620537216113  0.5796843498131281
  0.3742153123245657  0.2070351284438274  0.5818165916495346
  0.7042346053019699  0.2146972444686170  0.5774337661619953
  0.0347667665315043  0.5421334244434064  0.9103621041900780
  0.3634713468645145  0.5399508372866038  0.9143010972189884
  0.7154257981652421  0.5458630619178777  0.9184937290614172
  0.0388470830295091  0.8870196878718062  0.9153853704197488
  0.3726972856126096  0.8820973491231570  0.9104058624125102
  0.7033995014863237  0.8812409250583286  0.9117510142906795
  0.0313463659201858  0.2140368986951984  0.9095527181291914
  0.3840329859517126  0.2179759109607318  0.9223464591201704
  0.7011640236906089  0.2111039176999583  0.9085036686568984

  0.00000000E+00  0.00000000E+00  0.00000000E+00
  0.00000000E+00  0.00000000E+00  0.00000000E+00
  0.00000000E+00  0.00000000E+00  0.00000000E+00
  0.00000000E+00  0.00000000E+00  0.00000000E+00
  0.00000000E+00  0.00000000E+00  0.00000000E+00
  0.00000000E+00  0.00000000E+00  0.00000000E+00
  0.00000000E+00  0.00000000E+00  0.00000000E+00
  0.00000000E+00  0.00000000E+00  0.00000000E+00
  0.00000000E+00  0.00000000E+00  0.00000000E+00
  0.00000000E+00  0.00000000E+00  0.00000000E+00
  0.00000000E+00  0.00000000E+00  0.00000000E+00
  0.00000000E+00  0.00000000E+00  0.00000000E+00
  0.00000000E+00  0.00000000E+00  0.00000000E+00
  0.00000000E+00  0.00000000E+00  0.00000000E+00
  0.00000000E+00  0.00000000E+00  0.00000000E+00
  0.00000000E+00  0.00000000E+00  0.00000000E+00
  0.00000000E+00  0.00000000E+00  0.00000000E+00
  0.00000000E+00  0.00000000E+00  0.00000000E+00
  0.00000000E+00  0.00000000E+00  0.00000000E+00
  0.00000000E+00  0.00000000E+00  0.00000000E+00
  0.00000000E+00  0.00000000E+00  0.00000000E+00
  0.00000000E+00  0.00000000E+00  0.00000000E+00
  0.00000000E+00  0.00000000E+00  0.00000000E+00
  0.00000000E+00  0.00000000E+00  0.00000000E+00
  0.00000000E+00  0.00000000E+00  0.00000000E+00
  0.00000000E+00  0.00000000E+00  0.00000000E+00
  0.00000000E+00  0.00000000E+00  0.00000000E+00
  0.00000000E+00  0.00000000E+00  0.00000000E+00
  0.00000000E+00  0.00000000E+00  0.00000000E+00
  0.00000000E+00  0.00000000E+00  0.00000000E+00
  0.00000000E+00  0.00000000E+00  0.00000000E+00
  0.00000000E+00  0.00000000E+00  0.00000000E+00
  0.00000000E+00  0.00000000E+00  0.00000000E+00
  0.00000000E+00  0.00000000E+00  0.00000000E+00
  0.00000000E+00  0.00000000E+00  0.00000000E+00
  0.00000000E+00  0.00000000E+00  0.00000000E+00
  0.00000000E+00  0.00000000E+00  0.00000000E+00
  0.00000000E+00  0.00000000E+00  0.00000000E+00
  0.00000000E+00  0.00000000E+00  0.00000000E+00
  0.00000000E+00  0.00000000E+00  0.00000000E+00
  0.00000000E+00  0.00000000E+00  0.00000000E+00
  0.00000000E+00  0.00000000E+00  0.00000000E+00
  0.00000000E+00  0.00000000E+00  0.00000000E+00
  0.00000000E+00  0.00000000E+00  0.00000000E+00
  0.00000000E+00  0.00000000E+00  0.00000000E+00
  0.00000000E+00  0.00000000E+00  0.00000000E+00
  0.00000000E+00  0.00000000E+00  0.00000000E+00
  0.00000000E+00  0.00000000E+00  0.00000000E+00
  0.00000000E+00  0.00000000E+00  0.00000000E+00
  0.00000000E+00  0.00000000E+00  0.00000000E+00
  0.00000000E+00  0.00000000E+00  0.00000000E+00
  0.00000000E+00  0.00000000E+00  0.00000000E+00
  0.00000000E+00  0.00000000E+00  0.00000000E+00
  0.00000000E+00  0.00000000E+00  0.00000000E+00
  0.00000000E+00  0.00000000E+00  0.00000000E+00
  0.00000000E+00  0.00000000E+00  0.00000000E+00
  0.00000000E+00  0.00000000E+00  0.00000000E+00
  0.00000000E+00  0.00000000E+00  0.00000000E+00
  0.00000000E+00  0.00000000E+00  0.00000000E+00
  0.00000000E+00  0.00000000E+00  0.00000000E+00
  0.00000000E+00  0.00000000E+00  0.00000000E+00
  0.00000000E+00  0.00000000E+00  0.00000000E+00
  0.00000000E+00  0.00000000E+00  0.00000000E+00
  0.00000000E+00  0.00000000E+00  0.00000000E+00
  0.00000000E+00  0.00000000E+00  0.00000000E+00
  0.00000000E+00  0.00000000E+00  0.00000000E+00
  0.00000000E+00  0.00000000E+00  0.00000000E+00
  0.00000000E+00  0.00000000E+00  0.00000000E+00
  0.00000000E+00  0.00000000E+00  0.00000000E+00
  0.00000000E+00  0.00000000E+00  0.00000000E+00
  0.00000000E+00  0.00000000E+00  0.00000000E+00
  0.00000000E+00  0.00000000E+00  0.00000000E+00
  0.00000000E+00  0.00000000E+00  0.00000000E+00
  0.00000000E+00  0.00000000E+00  0.00000000E+00
  0.00000000E+00  0.00000000E+00  0.00000000E+00
  0.00000000E+00  0.00000000E+00  0.00000000E+00
  0.00000000E+00  0.00000000E+00  0.00000000E+00
  0.00000000E+00  0.00000000E+00  0.00000000E+00
  0.00000000E+00  0.00000000E+00  0.00000000E+00
  0.00000000E+00  0.00000000E+00  0.00000000E+00
  0.00000000E+00  0.00000000E+00  0.00000000E+00
  0.00000000E+00  0.00000000E+00  0.00000000E+00
  0.00000000E+00  0.00000000E+00  0.00000000E+00
  0.00000000E+00  0.00000000E+00  0.00000000E+00
  0.00000000E+00  0.00000000E+00  0.00000000E+00
  0.00000000E+00  0.00000000E+00  0.00000000E+00
  0.00000000E+00  0.00000000E+00  0.00000000E+00
  0.00000000E+00  0.00000000E+00  0.00000000E+00
  0.00000000E+00  0.00000000E+00  0.00000000E+00
  0.00000000E+00  0.00000000E+00  0.00000000E+00
  0.00000000E+00  0.00000000E+00  0.00000000E+00
  0.00000000E+00  0.00000000E+00  0.00000000E+00
  0.00000000E+00  0.00000000E+00  0.00000000E+00
  0.00000000E+00  0.00000000E+00  0.00000000E+00
  0.00000000E+00  0.00000000E+00  0.00000000E+00
  0.00000000E+00  0.00000000E+00  0.00000000E+00
  0.00000000E+00  0.00000000E+00  0.00000000E+00
  0.00000000E+00  0.00000000E+00  0.00000000E+00
  0.00000000E+00  0.00000000E+00  0.00000000E+00
  0.00000000E+00  0.00000000E+00  0.00000000E+00
  0.00000000E+00  0.00000000E+00  0.00000000E+00
  0.00000000E+00  0.00000000E+00  0.00000000E+00
  0.00000000E+00  0.00000000E+00  0.00000000E+00
  0.00000000E+00  0.00000000E+00  0.00000000E+00
  0.00000000E+00  0.00000000E+00  0.00000000E+00
  0.00000000E+00  0.00000000E+00  0.00000000E+00
  0.00000000E+00  0.00000000E+00  0.00000000E+00
  0.00000000E+00  0.00000000E+00  0.00000000E+00
  0.00000000E+00  0.00000000E+00  0.00000000E+00
  0.00000000E+00  0.00000000E+00  0.00000000E+00
  0.00000000E+00  0.00000000E+00  0.00000000E+00
  0.00000000E+00  0.00000000E+00  0.00000000E+00
  0.00000000E+00  0.00000000E+00  0.00000000E+00
  0.00000000E+00  0.00000000E+00  0.00000000E+00
  0.00000000E+00  0.00000000E+00  0.00000000E+00
  0.00000000E+00  0.00000000E+00  0.00000000E+00
  0.00000000E+00  0.00000000E+00  0.00000000E+00
  0.00000000E+00  0.00000000E+00  0.00000000E+00
  0.00000000E+00  0.00000000E+00  0.00000000E+00
  0.00000000E+00  0.00000000E+00  0.00000000E+00
  0.00000000E+00  0.00000000E+00  0.00000000E+00
  0.00000000E+00  0.00000000E+00  0.00000000E+00
  0.00000000E+00  0.00000000E+00  0.00000000E+00
  0.00000000E+00  0.00000000E+00  0.00000000E+00
  0.00000000E+00  0.00000000E+00  0.00000000E+00
  0.00000000E+00  0.00000000E+00  0.00000000E+00
  0.00000000E+00  0.00000000E+00  0.00000000E+00
  0.00000000E+00  0.00000000E+00  0.00000000E+00
  0.00000000E+00  0.00000000E+00  0.00000000E+00
  0.00000000E+00  0.00000000E+00  0.00000000E+00
  0.00000000E+00  0.00000000E+00  0.00000000E+00
  0.00000000E+00  0.00000000E+00  0.00000000E+00
  0.00000000E+00  0.00000000E+00  0.00000000E+00
  0.00000000E+00  0.00000000E+00  0.00000000E+00
  0.00000000E+00  0.00000000E+00  0.00000000E+00
  0.00000000E+00  0.00000000E+00  0.00000000E+00
  0.00000000E+00  0.00000000E+00  0.00000000E+00
  0.00000000E+00  0.00000000E+00  0.00000000E+00
  0.00000000E+00  0.00000000E+00  0.00000000E+00
  0.00000000E+00  0.00000000E+00  0.00000000E+00
  0.00000000E+00  0.00000000E+00  0.00000000E+00
  0.00000000E+00  0.00000000E+00  0.00000000E+00
  0.00000000E+00  0.00000000E+00  0.00000000E+00
  0.00000000E+00  0.00000000E+00  0.00000000E+00
  0.00000000E+00  0.00000000E+00  0.00000000E+00
  0.00000000E+00  0.00000000E+00  0.00000000E+00
  0.00000000E+00  0.00000000E+00  0.00000000E+00
  0.00000000E+00  0.00000000E+00  0.00000000E+00
  0.00000000E+00  0.00000000E+00  0.00000000E+00
  0.00000000E+00  0.00000000E+00  0.00000000E+00
  0.00000000E+00  0.00000000E+00  0.00000000E+00
  0.00000000E+00  0.00000000E+00  0.00000000E+00
  0.00000000E+00  0.00000000E+00  0.00000000E+00
  0.00000000E+00  0.00000000E+00  0.00000000E+00
  0.00000000E+00  0.00000000E+00  0.00000000E+00
  0.00000000E+00  0.00000000E+00  0.00000000E+00
  0.00000000E+00  0.00000000E+00  0.00000000E+00
  0.00000000E+00  0.00000000E+00  0.00000000E+00
  0.00000000E+00  0.00000000E+00  0.00000000E+00
  0.00000000E+00  0.00000000E+00  0.00000000E+00
  0.00000000E+00  0.00000000E+00  0.00000000E+00
  0.00000000E+00  0.00000000E+00  0.00000000E+00
  0.00000000E+00  0.00000000E+00  0.00000000E+00
  0.00000000E+00  0.00000000E+00  0.00000000E+00
  0.00000000E+00  0.00000000E+00  0.00000000E+00
  0.00000000E+00  0.00000000E+00  0.00000000E+00
  0.00000000E+00  0.00000000E+00  0.00000000E+00
  0.00000000E+00  0.00000000E+00  0.00000000E+00
  0.00000000E+00  0.00000000E+00  0.00000000E+00
  0.00000000E+00  0.00000000E+00  0.00000000E+00
  0.00000000E+00  0.00000000E+00  0.00000000E+00
  0.00000000E+00  0.00000000E+00  0.00000000E+00
  0.00000000E+00  0.00000000E+00  0.00000000E+00
  0.00000000E+00  0.00000000E+00  0.00000000E+00
  0.00000000E+00  0.00000000E+00  0.00000000E+00
  0.00000000E+00  0.00000000E+00  0.00000000E+00
  0.00000000E+00  0.00000000E+00  0.00000000E+00
  0.00000000E+00  0.00000000E+00  0.00000000E+00
  0.00000000E+00  0.00000000E+00  0.00000000E+00
  0.00000000E+00  0.00000000E+00  0.00000000E+00
  0.00000000E+00  0.00000000E+00  0.00000000E+00
  0.00000000E+00  0.00000000E+00  0.00000000E+00
  0.00000000E+00  0.00000000E+00  0.00000000E+00
  0.00000000E+00  0.00000000E+00  0.00000000E+00
  0.00000000E+00  0.00000000E+00  0.00000000E+00
  0.00000000E+00  0.00000000E+00  0.00000000E+00
  0.00000000E+00  0.00000000E+00  0.00000000E+00
  0.00000000E+00  0.00000000E+00  0.00000000E+00
  0.00000000E+00  0.00000000E+00  0.00000000E+00
  0.00000000E+00  0.00000000E+00  0.00000000E+00
  0.00000000E+00  0.00000000E+00  0.00000000E+00
  0.00000000E+00  0.00000000E+00  0.00000000E+00
  0.00000000E+00  0.00000000E+00  0.00000000E+00
  0.00000000E+00  0.00000000E+00  0.00000000E+00
  0.00000000E+00  0.00000000E+00  0.00000000E+00
  0.00000000E+00  0.00000000E+00  0.00000000E+00
  0.00000000E+00  0.00000000E+00  0.00000000E+00
  0.00000000E+00  0.00000000E+00  0.00000000E+00
  0.00000000E+00  0.00000000E+00  0.00000000E+00
  0.00000000E+00  0.00000000E+00  0.00000000E+00
  0.00000000E+00  0.00000000E+00  0.00000000E+00
  0.00000000E+00  0.00000000E+00  0.00000000E+00
  0.00000000E+00  0.00000000E+00  0.00000000E+00
  0.00000000E+00  0.00000000E+00  0.00000000E+00
  0.00000000E+00  0.00000000E+00  0.00000000E+00
  0.00000000E+00  0.00000000E+00  0.00000000E+00
  0.00000000E+00  0.00000000E+00  0.00000000E+00
  0.00000000E+00  0.00000000E+00  0.00000000E+00
  0.00000000E+00  0.00000000E+00  0.00000000E+00
  0.00000000E+00  0.00000000E+00  0.00000000E+00
  0.00000000E+00  0.00000000E+00  0.00000000E+00
  0.00000000E+00  0.00000000E+00  0.00000000E+00
  0.00000000E+00  0.00000000E+00  0.00000000E+00
  0.00000000E+00  0.00000000E+00  0.00000000E+00
  0.00000000E+00  0.00000000E+00  0.00000000E+00
  0.00000000E+00  0.00000000E+00  0.00000000E+00
