Ga54 Cu48 Ag6 Se108                     
   1.0000000000000000     
    15.6298001184020663    0.0007967836775912   -7.0485131759760380
    -3.1744994661696428   15.3018814463029535   -7.0400493602214027
    -0.0024813441615648   -0.0039883964848430   20.8416416620870280
   Ga   Cu   Ag   Se
    54    48     6   108
Direct
  0.1709692786407473  0.4996986656911204  0.9998945054381352
  0.4952033958618998  0.4979920749586739  0.9996736734414355
  0.8329021602946298  0.4960232973789260  0.9987116521130588
  0.1702439208593560  0.8361924145035715  0.0007291256230175
  0.4966700650711076  0.8362555281346715  0.0003674916820984
  0.8335940029831690  0.8379663763835907  0.9995170991757405
  0.1683758119333802  0.1643430359745466  0.9992686986002255
  0.4994985632413673  0.1661509833689436  0.9997752711137124
  0.8315663919851133  0.1650147462275129  0.0004243993907949
  0.1661101477625948  0.4991493237743114  0.3331169763227990
  0.5010560580219092  0.4997294353459552  0.3346393237191947
  0.8332026399803496  0.4976268871243761  0.3346151620923692
  0.1688336429581341  0.8349987678897151  0.3343319608093083
  0.4977221679050814  0.8348563895397234  0.3335137557032866
  0.8347032741909075  0.8359083549643316  0.3336938785876953
  0.1678657236458534  0.1678774500060314  0.3348358655334067
  0.4994158578260794  0.1666335115134956  0.3333880851066553
  0.8338414275268065  0.1676406207815404  0.3340199224260445
  0.1660954964147976  0.4994624527840656  0.6654333316357750
  0.4968151175508879  0.4985218387162860  0.6670554808521771
  0.8352770080891503  0.4979424159424966  0.6656169517827166
  0.1663871590968071  0.8327305129408984  0.6656749997156197
  0.4969661882772414  0.8351215914177317  0.6655856362749972
  0.8352017328970049  0.8330595806267596  0.6660838752090825
  0.1677773256638915  0.1663468325796202  0.6658648536778529
  0.4985441336963348  0.1654848557758157  0.6657823786854280
  0.8339460401040597  0.1673420184458720  0.6668225963291690
  0.2529161861382789  0.4172632902743558  0.1680955066496068
  0.5812640191253422  0.4133981296728209  0.1669688665413531
  0.9172436805271218  0.4139248652513103  0.1676562538205744
  0.2515649145556509  0.7512028097704544  0.1670316468734256
  0.5793507667032856  0.7524159823347816  0.1679489876121778
  0.9211379435129743  0.7542457702725045  0.1685662610763714
  0.2508732152910369  0.0845267797072609  0.1672429631903043
  0.5827825843549874  0.0844616495226447  0.1667571967993879
  0.9169968365830172  0.0840054807788988  0.1671770648586062
  0.2496276879950798  0.4167293452538843  0.4999312716047299
  0.5831293894586906  0.4145927219857555  0.4999125197605139
  0.9174089211499137  0.4155798293784798  0.5006021452556837
  0.2500411168524224  0.7500864054362069  0.4997017331756837
  0.5804713680003317  0.7492129790098545  0.4999229860639431
  0.9182671397054349  0.7475327587420963  0.4984337430412822
  0.2503978238720705  0.0835013843050874  0.4999573976888954
  0.5810630479863121  0.0852456854069814  0.4999779198142988
  0.9192959698413645  0.0867620999425398  0.5008127379207608
  0.2490542465749073  0.4156579753702729  0.8320996464995716
  0.5818974116558451  0.4139061784612181  0.8324926448287755
  0.9173126459374359  0.4154861905663338  0.8310878208934938
  0.2493714223335743  0.7504003818791958  0.8325028001568384
  0.5799130148194536  0.7520684834109588  0.8332173501686597
  0.9191924882841107  0.7518095501233688  0.8336560314522359
  0.2510305109644619  0.0828902503159910  0.8330817608246974
  0.5818162821511024  0.0824008538608041  0.8329254200243881
  0.9167107834716006  0.0805777524049986  0.8314918570365109
  0.3336434525078289  0.3313016513943907  0.9998263809615651
  0.6620398337125550  0.3273995574940045  0.9969520996777348
  0.3333186659567033  0.6677209269889275  0.9993351007811242
  0.0013369350471066  0.0011344209013231  0.9993201294070104
  0.3340415582732064  0.0016072091910146  0.0002804769473741
  0.6643619873855044  0.0002462592492662  0.0001567822821329
  0.9999857128456853  0.3332739214588472  0.3338052681494830
  0.3337516853367788  0.3339773058244830  0.3340004361676918
  0.6663182957047482  0.3322637906540606  0.3339919093949391
  0.0032414299073906  0.6660018206113207  0.3351573536214261
  0.3337288320253791  0.6666756343284774  0.3331424496666884
  0.6621458435793102  0.6652823733699194  0.3331494499752239
  0.0009297424939874  0.0004567207192281  0.3334827486807868
  0.3337596566657766  0.0013885738109636  0.3340326743841970
  0.6671406816315368  0.0016796400559116  0.3313963834540914
  0.0017109279082774  0.3323821999486682  0.6669067538592159
  0.3322972537166962  0.3322675117952159  0.6661928582886816
  0.6667226974233529  0.3327655957431332  0.6669480741936340
  0.9997254942865581  0.6662883583223476  0.6657789248857853
  0.3321397005698614  0.6668348883680082  0.6660637188946197
  0.0044217447506441  0.9993679070172021  0.6673333574420468
  0.3323913361226829  0.0008483873334058  0.6668706772156483
  0.6654908077607118  0.0024849659317994  0.6689009730276325
  0.0860505009679855  0.5860804817458956  0.1713148956866775
  0.4165621985111727  0.5836803160667685  0.1673708389298838
  0.0844468850800908  0.9220097745271474  0.1682605489747786
  0.4162370703687017  0.9187968403106126  0.1677810829127395
  0.7492466485570901  0.9213374130816305  0.1693155952683583
  0.0879633284652428  0.2481087455764026  0.1702486559867751
  0.4154354276862406  0.2495784762025579  0.1666442788877163
  0.7497544434718577  0.2490556279248679  0.1669441397785434
  0.0836358827974522  0.5822084017252820  0.4998389831678196
  0.4113087055834157  0.5795454627258181  0.4970997623844298
  0.7513578212799032  0.5826765875456985  0.4984322925432423
  0.0834751521423769  0.9166971167180620  0.4990122466534288
  0.4165562666499341  0.9167900608148400  0.5002275089318999
  0.0846515775449888  0.2503707442027476  0.4996216884158287
  0.4165113566120482  0.2520490672498070  0.5011398181442033
  0.7501689545192889  0.2496861156190207  0.5004057756813651
  0.0846450476619083  0.5839763225710186  0.8309370250150465
  0.4122168015365446  0.5806851028796274  0.8310797694655889
  0.7499316032214054  0.5792613854435160  0.8312585951932405
  0.0834957096312579  0.9163550447086308  0.8323809516304692
  0.4155921891615577  0.9164087166324677  0.8325999810540381
  0.7492946149443398  0.9201878225290017  0.8355258724361647
  0.0852557239706471  0.2496136905089870  0.8306956895269124
  0.4165584066291643  0.2499104432748922  0.8332616251967835
  0.7471805083893628  0.2468654064331730  0.8306822166628010
  0.0029360825210745  0.3321646696751444  0.0019188829872263
  0.9996266803513763  0.6669357091795192  0.9994637210264372
  0.6672981600131180  0.6706802120998745  0.0001745785784664
  0.6667627864886470  0.6676861290788878  0.6682110258700291
  0.7552071369020510  0.5821280420314494  0.1690130751784764
  0.7497990779703727  0.9160419620786584  0.4995256696822850
  0.1324706954682426  0.4675607541444720  0.0894784926038241
  0.4546656750869076  0.4566994678532978  0.0844596750148980
  0.7904547079803308  0.4455369587578986  0.0767274181057402
  0.1308577779863072  0.8012316226433072  0.0883730713232751
  0.4539073384990786  0.7940499240770933  0.0836838844065326
  0.7990170742791562  0.8029754859617100  0.0897428541940855
  0.1242081115060998  0.1250920380707043  0.0832849106811295
  0.4562033678788922  0.1259399549610620  0.0835973198490052
  0.7880123621315320  0.1234551397918295  0.0835609909761956
  0.1228950824506683  0.4576755763748466  0.4165004591837373
  0.4568952411215790  0.4579798966576334  0.4176243829432238
  0.7901540373651628  0.4560280785011344  0.4173702782566906
  0.1241809206633349  0.7922345605630596  0.4167119944924380
  0.4555603965211432  0.7924127873276916  0.4166366620682567
  0.7916957309647970  0.7821816241190049  0.4099195658467210
  0.1238161920887464  0.1251866161444681  0.4170007007136078
  0.4548118531448040  0.1273077193146648  0.4172721308783451
  0.7903429592699425  0.1255936092653513  0.4170588895403284
  0.1231627070673085  0.4578018411182470  0.7487092419222776
  0.4544040909232834  0.4565374951409851  0.7505089937322751
  0.7904700376884222  0.4572495070882567  0.7481911349639034
  0.1222829984143274  0.7912063740801827  0.7487494389043903
  0.4540738287306709  0.7922539089327856  0.7482642268998418
  0.7982393973645756  0.8012330101896836  0.7558592508675943
  0.1254250402604882  0.1245638172499710  0.7492152225598119
  0.4555284509268347  0.1248226034769502  0.7498496553899088
  0.7903692422514794  0.1241625056246605  0.7494405661689001
  0.2955596013423332  0.6266035835688797  0.0833833104136588
  0.6162007225384514  0.6249902323661374  0.0845507094709177
  0.9579401278961583  0.6215228756127118  0.0885468515839634
  0.2958098967159231  0.9613174321605555  0.0841508796068666
  0.6255170579632221  0.9589168536621600  0.0835626457462055
  0.9617752044717420  0.9610551255264497  0.0830124738777229
  0.2934614088115310  0.2909191772277140  0.0830065100851556
  0.6263396053335626  0.2902505291055348  0.0836309538563853
  0.9599200686009652  0.2860685599381796  0.0897322109726417
  0.2917556905788743  0.6244048870508152  0.4150343205073028
  0.6267847023422490  0.6254926524413165  0.4186848756895287
  0.9609173155846804  0.6221012699677075  0.4156213435051299
  0.2950818514424256  0.9596098290917254  0.4173830956140065
  0.6191084867134791  0.9625342184257235  0.4113461367248163
  0.9611641426066484  0.9606142500747978  0.4175767409616995
  0.2940530430375361  0.2928719844683911  0.4173457833339000
  0.6266551334295229  0.2901098231780921  0.4167642755594940
  0.9610715084417620  0.2916165439066631  0.4170729342569715
  0.2918083314210449  0.6247577412129885  0.7485938995242591
  0.6221882133821239  0.6221386414128389  0.7558309174458344
  0.9604295883668144  0.6251610138640871  0.7493882502019531
  0.2931278149583179  0.9576764362950811  0.7490702401050342
  0.6254097920734480  0.9581672962105543  0.7500981032413208
  0.9613677252297705  0.9574359358320876  0.7480010530692809
  0.2938874640082076  0.2912293445679239  0.7498085545138125
  0.6250127897734501  0.2896244353773270  0.7484598957145536
  0.9609903302244831  0.2908208713999727  0.7493006512080811
  0.2092857474283036  0.3732593005193010  0.2503015243771856
  0.5405374617555552  0.3711134731694301  0.2510798524491378
  0.8742932973281299  0.3718570353236501  0.2506952761275230
  0.2098681017214190  0.7083063158674605  0.2508683617781031
  0.5400640265791168  0.7080760054593398  0.2516649808858276
  0.8852969565673874  0.7160365182755086  0.2558988972140597
  0.2099935032672917  0.0424460646270148  0.2514574394482025
  0.5411492765556645  0.0407250526240617  0.2496240234010116
  0.8759951117138414  0.0412827808324749  0.2513957693042386
  0.2086843483086227  0.3730086122814242  0.5830800644951850
  0.5418755504492054  0.3736763113987749  0.5847967566173224
  0.8767363861161570  0.3707886288102245  0.5834392959106225
  0.2076819608393095  0.7057263912074774  0.5822948360093605
  0.5304061395893029  0.7069140665671583  0.5780029397544624
  0.8751304488487506  0.7055869471854308  0.5820109620974279
  0.2083001413858341  0.0393685684508114  0.5824932623670520
  0.5412361478847387  0.0394833257040261  0.5830856943540894
  0.8842407847276306  0.0470782557129894  0.5882263521255524
  0.2100987722448977  0.3712900070919218  0.9163100406285594
  0.5405981258730037  0.3729973774068895  0.9173923587405497
  0.8692920423028880  0.3721414742924267  0.9100248820602488
  0.2085636029571916  0.7071968482193967  0.9162850529144180
  0.5301963353797063  0.7098145226333799  0.9115518872437320
  0.8658792959892523  0.7095041684484542  0.9104834781610620
  0.2094250954274841  0.0381467087941729  0.9157059403093015
  0.5402220960042925  0.0392371203877460  0.9163474063100239
  0.8756832963987051  0.0406320572831902  0.9171408521858950
  0.0411051802311775  0.5418851589593530  0.2499974847396800
  0.3771435617389614  0.5440346493244164  0.2516987182161685
  0.7046224036332234  0.5391795382068949  0.2552768091247160
  0.0457902331901252  0.8800452952011426  0.2511310742406536
  0.3745479176188766  0.8785067202048467  0.2503655550247714
  0.7075496145856448  0.8768758712527145  0.2497375814251868
  0.0425438489606904  0.2104478828008425  0.2517963837330726
  0.3751260208068956  0.2111945212587756  0.2506826862813227
  0.7083576545860808  0.2104689076247510  0.2505446424564539
  0.0411617666005313  0.5431066508593005  0.5827578413487799
  0.3737949636285691  0.5433937688640285  0.5835034249272226
  0.7112525825482336  0.5360191250605624  0.5783176344669556
  0.0417705829516848  0.8757381175008874  0.5815777158805133
  0.3729198494057187  0.8786527841266292  0.5828010664385914
  0.7046283463464178  0.8745528840891410  0.5888665268328097
  0.0444854915352124  0.2120917317135920  0.5835817494217679
  0.3745985092640680  0.2103513295713171  0.5831864855622797
  0.7082119653613574  0.2101204371204091  0.5834381105217261
  0.0460387142682350  0.5362487145387718  0.9112052632458756
  0.3727402485097073  0.5428688969721733  0.9159001519258254
  0.7099298968558614  0.5359633307761129  0.9126395332951134
  0.0441058877602387  0.8781500467177921  0.9174877027496748
  0.3728183694535971  0.8786804254490619  0.9159550354785964
  0.7056749359455523  0.8785905919796093  0.9164132102594280
  0.0453472470892748  0.2013390755352873  0.9100440480301799
  0.3754049953477718  0.2097448800440205  0.9163796523826946
  0.7074220472424670  0.2078952463924892  0.9152084375573892

  0.00000000E+00  0.00000000E+00  0.00000000E+00
  0.00000000E+00  0.00000000E+00  0.00000000E+00
  0.00000000E+00  0.00000000E+00  0.00000000E+00
  0.00000000E+00  0.00000000E+00  0.00000000E+00
  0.00000000E+00  0.00000000E+00  0.00000000E+00
  0.00000000E+00  0.00000000E+00  0.00000000E+00
  0.00000000E+00  0.00000000E+00  0.00000000E+00
  0.00000000E+00  0.00000000E+00  0.00000000E+00
  0.00000000E+00  0.00000000E+00  0.00000000E+00
  0.00000000E+00  0.00000000E+00  0.00000000E+00
  0.00000000E+00  0.00000000E+00  0.00000000E+00
  0.00000000E+00  0.00000000E+00  0.00000000E+00
  0.00000000E+00  0.00000000E+00  0.00000000E+00
  0.00000000E+00  0.00000000E+00  0.00000000E+00
  0.00000000E+00  0.00000000E+00  0.00000000E+00
  0.00000000E+00  0.00000000E+00  0.00000000E+00
  0.00000000E+00  0.00000000E+00  0.00000000E+00
  0.00000000E+00  0.00000000E+00  0.00000000E+00
  0.00000000E+00  0.00000000E+00  0.00000000E+00
  0.00000000E+00  0.00000000E+00  0.00000000E+00
  0.00000000E+00  0.00000000E+00  0.00000000E+00
  0.00000000E+00  0.00000000E+00  0.00000000E+00
  0.00000000E+00  0.00000000E+00  0.00000000E+00
  0.00000000E+00  0.00000000E+00  0.00000000E+00
  0.00000000E+00  0.00000000E+00  0.00000000E+00
  0.00000000E+00  0.00000000E+00  0.00000000E+00
  0.00000000E+00  0.00000000E+00  0.00000000E+00
  0.00000000E+00  0.00000000E+00  0.00000000E+00
  0.00000000E+00  0.00000000E+00  0.00000000E+00
  0.00000000E+00  0.00000000E+00  0.00000000E+00
  0.00000000E+00  0.00000000E+00  0.00000000E+00
  0.00000000E+00  0.00000000E+00  0.00000000E+00
  0.00000000E+00  0.00000000E+00  0.00000000E+00
  0.00000000E+00  0.00000000E+00  0.00000000E+00
  0.00000000E+00  0.00000000E+00  0.00000000E+00
  0.00000000E+00  0.00000000E+00  0.00000000E+00
  0.00000000E+00  0.00000000E+00  0.00000000E+00
  0.00000000E+00  0.00000000E+00  0.00000000E+00
  0.00000000E+00  0.00000000E+00  0.00000000E+00
  0.00000000E+00  0.00000000E+00  0.00000000E+00
  0.00000000E+00  0.00000000E+00  0.00000000E+00
  0.00000000E+00  0.00000000E+00  0.00000000E+00
  0.00000000E+00  0.00000000E+00  0.00000000E+00
  0.00000000E+00  0.00000000E+00  0.00000000E+00
  0.00000000E+00  0.00000000E+00  0.00000000E+00
  0.00000000E+00  0.00000000E+00  0.00000000E+00
  0.00000000E+00  0.00000000E+00  0.00000000E+00
  0.00000000E+00  0.00000000E+00  0.00000000E+00
  0.00000000E+00  0.00000000E+00  0.00000000E+00
  0.00000000E+00  0.00000000E+00  0.00000000E+00
  0.00000000E+00  0.00000000E+00  0.00000000E+00
  0.00000000E+00  0.00000000E+00  0.00000000E+00
  0.00000000E+00  0.00000000E+00  0.00000000E+00
  0.00000000E+00  0.00000000E+00  0.00000000E+00
  0.00000000E+00  0.00000000E+00  0.00000000E+00
  0.00000000E+00  0.00000000E+00  0.00000000E+00
  0.00000000E+00  0.00000000E+00  0.00000000E+00
  0.00000000E+00  0.00000000E+00  0.00000000E+00
  0.00000000E+00  0.00000000E+00  0.00000000E+00
  0.00000000E+00  0.00000000E+00  0.00000000E+00
  0.00000000E+00  0.00000000E+00  0.00000000E+00
  0.00000000E+00  0.00000000E+00  0.00000000E+00
  0.00000000E+00  0.00000000E+00  0.00000000E+00
  0.00000000E+00  0.00000000E+00  0.00000000E+00
  0.00000000E+00  0.00000000E+00  0.00000000E+00
  0.00000000E+00  0.00000000E+00  0.00000000E+00
  0.00000000E+00  0.00000000E+00  0.00000000E+00
  0.00000000E+00  0.00000000E+00  0.00000000E+00
  0.00000000E+00  0.00000000E+00  0.00000000E+00
  0.00000000E+00  0.00000000E+00  0.00000000E+00
  0.00000000E+00  0.00000000E+00  0.00000000E+00
  0.00000000E+00  0.00000000E+00  0.00000000E+00
  0.00000000E+00  0.00000000E+00  0.00000000E+00
  0.00000000E+00  0.00000000E+00  0.00000000E+00
  0.00000000E+00  0.00000000E+00  0.00000000E+00
  0.00000000E+00  0.00000000E+00  0.00000000E+00
  0.00000000E+00  0.00000000E+00  0.00000000E+00
  0.00000000E+00  0.00000000E+00  0.00000000E+00
  0.00000000E+00  0.00000000E+00  0.00000000E+00
  0.00000000E+00  0.00000000E+00  0.00000000E+00
  0.00000000E+00  0.00000000E+00  0.00000000E+00
  0.00000000E+00  0.00000000E+00  0.00000000E+00
  0.00000000E+00  0.00000000E+00  0.00000000E+00
  0.00000000E+00  0.00000000E+00  0.00000000E+00
  0.00000000E+00  0.00000000E+00  0.00000000E+00
  0.00000000E+00  0.00000000E+00  0.00000000E+00
  0.00000000E+00  0.00000000E+00  0.00000000E+00
  0.00000000E+00  0.00000000E+00  0.00000000E+00
  0.00000000E+00  0.00000000E+00  0.00000000E+00
  0.00000000E+00  0.00000000E+00  0.00000000E+00
  0.00000000E+00  0.00000000E+00  0.00000000E+00
  0.00000000E+00  0.00000000E+00  0.00000000E+00
  0.00000000E+00  0.00000000E+00  0.00000000E+00
  0.00000000E+00  0.00000000E+00  0.00000000E+00
  0.00000000E+00  0.00000000E+00  0.00000000E+00
  0.00000000E+00  0.00000000E+00  0.00000000E+00
  0.00000000E+00  0.00000000E+00  0.00000000E+00
  0.00000000E+00  0.00000000E+00  0.00000000E+00
  0.00000000E+00  0.00000000E+00  0.00000000E+00
  0.00000000E+00  0.00000000E+00  0.00000000E+00
  0.00000000E+00  0.00000000E+00  0.00000000E+00
  0.00000000E+00  0.00000000E+00  0.00000000E+00
  0.00000000E+00  0.00000000E+00  0.00000000E+00
  0.00000000E+00  0.00000000E+00  0.00000000E+00
  0.00000000E+00  0.00000000E+00  0.00000000E+00
  0.00000000E+00  0.00000000E+00  0.00000000E+00
  0.00000000E+00  0.00000000E+00  0.00000000E+00
  0.00000000E+00  0.00000000E+00  0.00000000E+00
  0.00000000E+00  0.00000000E+00  0.00000000E+00
  0.00000000E+00  0.00000000E+00  0.00000000E+00
  0.00000000E+00  0.00000000E+00  0.00000000E+00
  0.00000000E+00  0.00000000E+00  0.00000000E+00
  0.00000000E+00  0.00000000E+00  0.00000000E+00
  0.00000000E+00  0.00000000E+00  0.00000000E+00
  0.00000000E+00  0.00000000E+00  0.00000000E+00
  0.00000000E+00  0.00000000E+00  0.00000000E+00
  0.00000000E+00  0.00000000E+00  0.00000000E+00
  0.00000000E+00  0.00000000E+00  0.00000000E+00
  0.00000000E+00  0.00000000E+00  0.00000000E+00
  0.00000000E+00  0.00000000E+00  0.00000000E+00
  0.00000000E+00  0.00000000E+00  0.00000000E+00
  0.00000000E+00  0.00000000E+00  0.00000000E+00
  0.00000000E+00  0.00000000E+00  0.00000000E+00
  0.00000000E+00  0.00000000E+00  0.00000000E+00
  0.00000000E+00  0.00000000E+00  0.00000000E+00
  0.00000000E+00  0.00000000E+00  0.00000000E+00
  0.00000000E+00  0.00000000E+00  0.00000000E+00
  0.00000000E+00  0.00000000E+00  0.00000000E+00
  0.00000000E+00  0.00000000E+00  0.00000000E+00
  0.00000000E+00  0.00000000E+00  0.00000000E+00
  0.00000000E+00  0.00000000E+00  0.00000000E+00
  0.00000000E+00  0.00000000E+00  0.00000000E+00
  0.00000000E+00  0.00000000E+00  0.00000000E+00
  0.00000000E+00  0.00000000E+00  0.00000000E+00
  0.00000000E+00  0.00000000E+00  0.00000000E+00
  0.00000000E+00  0.00000000E+00  0.00000000E+00
  0.00000000E+00  0.00000000E+00  0.00000000E+00
  0.00000000E+00  0.00000000E+00  0.00000000E+00
  0.00000000E+00  0.00000000E+00  0.00000000E+00
  0.00000000E+00  0.00000000E+00  0.00000000E+00
  0.00000000E+00  0.00000000E+00  0.00000000E+00
  0.00000000E+00  0.00000000E+00  0.00000000E+00
  0.00000000E+00  0.00000000E+00  0.00000000E+00
  0.00000000E+00  0.00000000E+00  0.00000000E+00
  0.00000000E+00  0.00000000E+00  0.00000000E+00
  0.00000000E+00  0.00000000E+00  0.00000000E+00
  0.00000000E+00  0.00000000E+00  0.00000000E+00
  0.00000000E+00  0.00000000E+00  0.00000000E+00
  0.00000000E+00  0.00000000E+00  0.00000000E+00
  0.00000000E+00  0.00000000E+00  0.00000000E+00
  0.00000000E+00  0.00000000E+00  0.00000000E+00
  0.00000000E+00  0.00000000E+00  0.00000000E+00
  0.00000000E+00  0.00000000E+00  0.00000000E+00
  0.00000000E+00  0.00000000E+00  0.00000000E+00
  0.00000000E+00  0.00000000E+00  0.00000000E+00
  0.00000000E+00  0.00000000E+00  0.00000000E+00
  0.00000000E+00  0.00000000E+00  0.00000000E+00
  0.00000000E+00  0.00000000E+00  0.00000000E+00
  0.00000000E+00  0.00000000E+00  0.00000000E+00
  0.00000000E+00  0.00000000E+00  0.00000000E+00
  0.00000000E+00  0.00000000E+00  0.00000000E+00
  0.00000000E+00  0.00000000E+00  0.00000000E+00
  0.00000000E+00  0.00000000E+00  0.00000000E+00
  0.00000000E+00  0.00000000E+00  0.00000000E+00
  0.00000000E+00  0.00000000E+00  0.00000000E+00
  0.00000000E+00  0.00000000E+00  0.00000000E+00
  0.00000000E+00  0.00000000E+00  0.00000000E+00
  0.00000000E+00  0.00000000E+00  0.00000000E+00
  0.00000000E+00  0.00000000E+00  0.00000000E+00
  0.00000000E+00  0.00000000E+00  0.00000000E+00
  0.00000000E+00  0.00000000E+00  0.00000000E+00
  0.00000000E+00  0.00000000E+00  0.00000000E+00
  0.00000000E+00  0.00000000E+00  0.00000000E+00
  0.00000000E+00  0.00000000E+00  0.00000000E+00
  0.00000000E+00  0.00000000E+00  0.00000000E+00
  0.00000000E+00  0.00000000E+00  0.00000000E+00
  0.00000000E+00  0.00000000E+00  0.00000000E+00
  0.00000000E+00  0.00000000E+00  0.00000000E+00
  0.00000000E+00  0.00000000E+00  0.00000000E+00
  0.00000000E+00  0.00000000E+00  0.00000000E+00
  0.00000000E+00  0.00000000E+00  0.00000000E+00
  0.00000000E+00  0.00000000E+00  0.00000000E+00
  0.00000000E+00  0.00000000E+00  0.00000000E+00
  0.00000000E+00  0.00000000E+00  0.00000000E+00
  0.00000000E+00  0.00000000E+00  0.00000000E+00
  0.00000000E+00  0.00000000E+00  0.00000000E+00
  0.00000000E+00  0.00000000E+00  0.00000000E+00
  0.00000000E+00  0.00000000E+00  0.00000000E+00
  0.00000000E+00  0.00000000E+00  0.00000000E+00
  0.00000000E+00  0.00000000E+00  0.00000000E+00
  0.00000000E+00  0.00000000E+00  0.00000000E+00
  0.00000000E+00  0.00000000E+00  0.00000000E+00
  0.00000000E+00  0.00000000E+00  0.00000000E+00
  0.00000000E+00  0.00000000E+00  0.00000000E+00
  0.00000000E+00  0.00000000E+00  0.00000000E+00
  0.00000000E+00  0.00000000E+00  0.00000000E+00
  0.00000000E+00  0.00000000E+00  0.00000000E+00
  0.00000000E+00  0.00000000E+00  0.00000000E+00
  0.00000000E+00  0.00000000E+00  0.00000000E+00
  0.00000000E+00  0.00000000E+00  0.00000000E+00
  0.00000000E+00  0.00000000E+00  0.00000000E+00
  0.00000000E+00  0.00000000E+00  0.00000000E+00
  0.00000000E+00  0.00000000E+00  0.00000000E+00
  0.00000000E+00  0.00000000E+00  0.00000000E+00
  0.00000000E+00  0.00000000E+00  0.00000000E+00
  0.00000000E+00  0.00000000E+00  0.00000000E+00
  0.00000000E+00  0.00000000E+00  0.00000000E+00
  0.00000000E+00  0.00000000E+00  0.00000000E+00
  0.00000000E+00  0.00000000E+00  0.00000000E+00
  0.00000000E+00  0.00000000E+00  0.00000000E+00
  0.00000000E+00  0.00000000E+00  0.00000000E+00
  0.00000000E+00  0.00000000E+00  0.00000000E+00
  0.00000000E+00  0.00000000E+00  0.00000000E+00
  0.00000000E+00  0.00000000E+00  0.00000000E+00
  0.00000000E+00  0.00000000E+00  0.00000000E+00
  0.00000000E+00  0.00000000E+00  0.00000000E+00
