In18 Ga36 Cu24 Ag30 Se108               
   1.0000000000000000     
    16.1399274077635155    0.0002830366841626   -7.3617215570637375
    -3.3345557206719545   15.8071572962222522   -7.3416019212083210
     0.0059640873057582    0.0061978375731638   21.4593260056296913
   In   Ga   Cu   Ag   Se
    18    36    24    30   108
Direct
  0.5001910977039827  0.5059377718568356  0.0022582165479506
  0.4979502574231560  0.1616496435334795  0.0002520971011464
  0.8393406368555034  0.1655393115260324  0.0026313601663759
  0.4959808321211057  0.4981097661029850  0.3330020875585049
  0.4995279851382861  0.8344382024341286  0.3342595113085025
  0.4984932332484533  0.1660259987528150  0.3329709813347250
  0.8364175286695001  0.8369164786614149  0.6644655760599392
  0.1639668663078524  0.1657978404713703  0.6640528699330233
  0.8367998037219024  0.1639038678415758  0.6637066896243695
  0.5870076277299319  0.4152673084799616  0.1705922764573273
  0.9190427543869291  0.4219363554220905  0.1709634112367908
  0.5840581015566286  0.4152433724324069  0.5028892808502050
  0.9183685790029728  0.7514727223037596  0.4954621036092490
  0.2454118356595814  0.4188688667074061  0.8320248757843416
  0.9219753039978116  0.4150765814784094  0.8358421519748518
  0.2492650073434177  0.7526238572701232  0.8342947391805851
  0.9202428605265922  0.7511980060239551  0.8337207086547878
  0.5810795376633706  0.0799290451788863  0.8257593572587751
  0.1713868070843318  0.5049598995381714  0.0058963179861422
  0.8301580689603085  0.5011862118795349  0.0022579330485044
  0.1703275918401346  0.8397126316988448  0.0031495931732906
  0.4981210456970615  0.8373543620282646  0.0038370130606964
  0.8360518698611443  0.8353525368766341  0.0027078711157174
  0.1687964004793656  0.1646237396951236  0.0027664823410802
  0.1667420737115179  0.5032149804687549  0.3357795400037418
  0.8389135848261375  0.4956999252924419  0.3338304924394819
  0.1650940626750028  0.8343849488753605  0.3326441554746040
  0.8327268364948992  0.8340438777581412  0.3299981708893469
  0.1671114763469248  0.1659749074105719  0.3349288332676608
  0.8353099550001701  0.1672223007735099  0.3324306121859024
  0.1640776987097468  0.4942763866594930  0.6589610662474215
  0.4902796880704017  0.4969625300695739  0.6646892067353249
  0.8377923062841788  0.4952987864492542  0.6644242989314861
  0.1654639704553915  0.8377651858827875  0.6690374664634788
  0.4944181080951751  0.8233661084184973  0.6611898004257881
  0.4975709316196983  0.1713199503412923  0.6634758901744462
  0.2484441635514614  0.4200586436332046  0.1660226592585801
  0.2490956197547618  0.7530848230250839  0.1671265102803758
  0.5847235131781545  0.7471351819910694  0.1663737638838114
  0.9190667659668605  0.7480809496223273  0.1697899516552326
  0.2491062455015225  0.0840948862859250  0.1657803391872505
  0.5805738142208270  0.0852000346979196  0.1682854809580903
  0.9201623091128184  0.0856471532615473  0.1706287036118113
  0.2502022595298641  0.4151500874105167  0.4980092534019107
  0.9139014236709357  0.4099145330129019  0.4955721102414117
  0.2481844861998610  0.7476662621040546  0.5009434009210665
  0.5813141936532489  0.7499117464957834  0.4995064022362641
  0.2503174308102061  0.0832465625741605  0.4955942992736766
  0.5820243111126047  0.0884168567037023  0.5001116353334893
  0.9130502445917372  0.0803650707491883  0.4955582875770972
  0.5841423880357794  0.4138980085084754  0.8315406818948929
  0.5785244698670766  0.7472655190255466  0.8321892678792366
  0.2437118317081044  0.0817671853117545  0.8348871875671335
  0.9251268018729064  0.0867730803465605  0.8370521127660382
  0.3323065818690552  0.6732225934902658  0.0083953874974370
  0.0061334335123533  0.9968785628401662  0.0000564059444912
  0.3326976714693046  0.0053842620518481  0.0050532233933325
  0.0001579037093506  0.3304977140661052  0.3330449480110573
  0.6707649246867504  0.3270895806887637  0.3310495720024917
  0.0011768693868888  0.6683494969635646  0.3300504090332268
  0.0008926033836758  0.9999746337794946  0.3318909612806564
  0.3298878376801753  0.0044062858656773  0.3349883280753190
  0.9936763999838476  0.3305187446913109  0.6597456333202629
  0.3343149426894030  0.3319576569485392  0.6606956493554748
  0.3292187792764523  0.6625480467489808  0.6606368671181002
  0.0032514306064613  0.0043167257891668  0.6695448953405858
  0.0861006393338002  0.5855085477478568  0.1707303101345161
  0.4115351928583380  0.5842700037434270  0.1621305115379528
  0.7588764779372070  0.5908157305784130  0.1753572508155727
  0.4162376789334061  0.2504817836153066  0.1679075201452562
  0.7540553980702640  0.2510008341834791  0.1756403354592138
  0.4136391796441217  0.5849000830499946  0.5047097076880434
  0.7513970784185560  0.9205154896839502  0.4984093467567376
  0.4124905903036975  0.2456017078303816  0.4999324466551727
  0.7524631115122418  0.2514081995742430  0.4972778628184074
  0.0867028550159219  0.9269073497728115  0.8382482189238942
  0.0844731794569071  0.2486240797912913  0.8343422178923561
  0.7495245264967210  0.2513290769088741  0.8325143459239968
  0.0042983766587028  0.3373312513616611  0.9966370327462499
  0.3273375299075880  0.3313687349344008  0.0034625126954992
  0.6680337045073372  0.3327934644757349  0.9999417178143020
  0.0043458534051624  0.6725874662912474  0.0129525821245053
  0.6644648681436323  0.6706319439325483  0.0003746202393344
  0.6755105328017308  0.0001178012908625  0.0054993127611098
  0.3277856231446350  0.3300062136241948  0.3344097323525972
  0.3223705359508813  0.6602611876800282  0.3303691414764529
  0.6680676277543469  0.6681934405923968  0.3295121211672480
  0.6732438654054107  0.0025898566703901  0.3379769634505934
  0.6622249297414626  0.3295341152739937  0.6636245296153973
  0.0091153756024411  0.6630094078547728  0.6662739229922536
  0.6599343077688715  0.6649602423983438  0.6688067589789242
  0.3245127127986080  0.9942050430164571  0.6616781231926296
  0.6730105542207738  0.0023571969694416  0.6669030964270561
  0.0796694054474401  0.9238220587674917  0.1706658078189776
  0.4124059104263438  0.9081902224863327  0.1623101766673969
  0.7526511414245505  0.9198431809309042  0.1673739433224952
  0.0927199638196470  0.2493258158106428  0.1741842327780390
  0.0883542440215379  0.5816047933061483  0.4960445576107233
  0.7476277923155692  0.5752418436843314  0.4950350314238321
  0.0735803060901290  0.9089075938590696  0.4890099076331680
  0.4179126087069704  0.9225171048599279  0.5024789251502924
  0.0844010654402254  0.2482161013084081  0.4976985204741240
  0.0920068290869835  0.5805882654186121  0.8362983289537738
  0.4117477367594375  0.5803395474191078  0.8277113950836750
  0.7519131039060056  0.5823119504794150  0.8325074951056948
  0.4127330844762156  0.9063358482363597  0.8293743760424732
  0.7512637715159585  0.9229153689710614  0.8395326157381575
  0.4116093558802447  0.2465379330275539  0.8287862376723609
  0.1313717217090371  0.4698612620641214  0.0899266129446303
  0.4558378610008802  0.4628494849418558  0.0884596445113246
  0.7902498136983453  0.4701330266501813  0.0876443401424893
  0.1343141126400837  0.8000160391456390  0.0867831800568695
  0.4622837172572716  0.7822959310535893  0.0796830835390949
  0.8037134245688833  0.7922094333713687  0.0859642606411981
  0.1253211075224954  0.1178683185420439  0.0799545020723045
  0.4537262338654529  0.1250643346209515  0.0900730827307683
  0.7995255287209417  0.1334570107210098  0.0972873028911891
  0.1258587688789632  0.4459460633742367  0.4083299043300528
  0.4533567588140457  0.4656020688569029  0.4243647718458092
  0.7928525786720328  0.4479833561180655  0.4094446202915023
  0.1281385696990043  0.7832314186220373  0.4112107523670687
  0.4585598124670440  0.7867971309685302  0.4190420275976408
  0.7917103972869555  0.8038083824023232  0.4147460976188668
  0.1254102442289877  0.1160379986160649  0.4102274734774767
  0.4530033107877571  0.1240338892786284  0.4202970247351985
  0.7987484570711842  0.1341446484025610  0.4200129582231469
  0.1154937992425573  0.4499761466847403  0.7335114073734985
  0.4578771699252187  0.4486987616245059  0.7458530252294366
  0.7956062077037558  0.4560832773960541  0.7437766529101566
  0.1229346075561324  0.8055023801993997  0.7531245641415723
  0.4556448593815432  0.7786019067540124  0.7416579614414402
  0.7907170536530330  0.7928940381624869  0.7481747051553853
  0.1228944510881362  0.1256629432537224  0.7549806443394118
  0.4545673907842911  0.1230345200750023  0.7376086146811005
  0.8020470437298357  0.1335398369100105  0.7618905128638644
  0.2930569310786098  0.6299110274841553  0.0866810674389953
  0.6360344753782883  0.6294457942841589  0.0957382652689418
  0.9571461457579815  0.6204310614169444  0.0916301439977687
  0.2884812595405677  0.9637945028617736  0.0819897275217158
  0.6163369315427758  0.9609594191103170  0.0860612029367545
  0.9517787092931727  0.9644540460785862  0.0778636593576039
  0.2884255610662549  0.2893985108462047  0.0923419343016505
  0.6344647486853248  0.2852467629174029  0.0886946640318342
  0.9656776488148680  0.2959206461294883  0.0867993044820494
  0.2897175318433227  0.6220970802694481  0.4250472402006764
  0.6224358808487054  0.6307195999709378  0.4184415385626963
  0.9576132877815624  0.6204243494281840  0.4049007375025298
  0.2854639874077591  0.9595518508757550  0.4106524388746777
  0.6284367915681415  0.9656391940426943  0.4265693214840667
  0.9491568022743380  0.9613820679542471  0.4067563657171078
  0.2896151324524467  0.2867460324329230  0.4224476232127330
  0.6339840757135633  0.2912995986261748  0.4157524836488165
  0.9535770239494283  0.2918938367624264  0.4106655726350539
  0.2813516649155048  0.6209740166345199  0.7363422413394503
  0.6113060035249873  0.6193297758951815  0.7506549896499948
  0.9574779617066440  0.6165461403506853  0.7467094857159466
  0.2836014829786890  0.9607680130972938  0.7531106871181024
  0.6156259242438225  0.9437804899867999  0.7385487232395604
  0.9682330161580666  0.9679614350136703  0.7547151041252249
  0.2912313864553013  0.2963872875783267  0.7413303988682713
  0.6240649677221413  0.2883066612920473  0.7536775632541222
  0.9714236230400815  0.2907638613992987  0.7489366176231869
  0.2101712978020061  0.3891959960346298  0.2521372953614218
  0.5431034141686624  0.3634471386706650  0.2533118293055949
  0.8770043277861959  0.3700157492227589  0.2547319383577289
  0.1991022389772112  0.7124595385013990  0.2441837377800837
  0.5330996425227212  0.7030762853959658  0.2390996680776851
  0.8785062864135114  0.7107492944939651  0.2536609641343617
  0.2152421221585428  0.0505588120320510  0.2546362080633742
  0.5426154207051610  0.0393389335709387  0.2459997234552986
  0.8841019206777219  0.0478909179657094  0.2556604304876657
  0.2158260827241776  0.3779881848033071  0.5841027135199610
  0.5264575755448817  0.3719402384044130  0.5819739587441717
  0.8738986312018895  0.3710267867990922  0.5793865622064445
  0.2123901096271865  0.7169519925395988  0.5898352868618773
  0.5335705048345005  0.7052656371917934  0.5761506473685643
  0.8772646018216506  0.7051215752455349  0.5797646749068122
  0.2040520302213409  0.0403658710587820  0.5709445542212848
  0.5448311270796466  0.0551458849170388  0.5856226089941359
  0.8796168174614323  0.0314750249088078  0.5774667239620968
  0.1980907914416008  0.3764385334876792  0.9178872886274263
  0.5402848596973939  0.3772201538167792  0.9118730312044718
  0.8643782496653571  0.3757609207832004  0.9172534889418316
  0.2149794434179739  0.7161378846180426  0.9290506284759701
  0.5359300000564602  0.7182182009903144  0.9170622095822125
  0.8773721590146550  0.7156129818111694  0.9239229401933073
  0.2115185167957847  0.0429594137146054  0.9216475784240572
  0.5428427785979366  0.0361805639895962  0.9135191989325477
  0.8903537157857286  0.0405019853801392  0.9182808243231264
  0.0507773420678959  0.5517330710983970  0.2565329092399367
  0.3704908135955804  0.5388204024245766  0.2389986396040129
  0.7221362138545970  0.5404148879752952  0.2522822641893683
  0.0379339136125196  0.8734437476237318  0.2550668568053780
  0.3652301576986190  0.8795397218024661  0.2534917119131137
  0.7065953772137874  0.8670843028110795  0.2481564574172523
  0.0426642774486155  0.2073463040970864  0.2572437464132022
  0.3692348853551692  0.2061377711324823  0.2419793736300448
  0.7083753340629855  0.2049391737661139  0.2497026201010826
  0.0394173295643085  0.5272167358213125  0.5746351326008963
  0.3705094024128357  0.5409754488444989  0.5817895101764492
  0.7166357335146216  0.5403211023269066  0.5907852514657606
  0.0465384137749041  0.8837583080898384  0.5917390194582737
  0.3727562748937174  0.8642903434868074  0.5812794935097116
  0.7041771848378815  0.8710844093887502  0.5704783726379290
  0.0292116670106068  0.2062442645134936  0.5794434628241873
  0.3718894595097808  0.2085889109715495  0.5806671431145176
  0.7070311227981989  0.2056524767670211  0.5719983943856448
  0.0505811180244251  0.5451030821228002  0.9270482769808694
  0.3685069201805504  0.5547883404049117  0.9229856925850939
  0.7064072970855122  0.5349595042130133  0.9162396966728537
  0.0510950161268227  0.8821620094596412  0.9198267578832855
  0.3777269893559563  0.8845235566329421  0.9299968658782518
  0.7070807427729662  0.8632278211294420  0.9164578225718643
  0.0504701667940211  0.2050281321124174  0.9160640883492377
  0.3656339253984981  0.2015540055003626  0.9119835759965582
  0.7128336961659940  0.2070719568960300  0.9109641576538294

  0.00000000E+00  0.00000000E+00  0.00000000E+00
  0.00000000E+00  0.00000000E+00  0.00000000E+00
  0.00000000E+00  0.00000000E+00  0.00000000E+00
  0.00000000E+00  0.00000000E+00  0.00000000E+00
  0.00000000E+00  0.00000000E+00  0.00000000E+00
  0.00000000E+00  0.00000000E+00  0.00000000E+00
  0.00000000E+00  0.00000000E+00  0.00000000E+00
  0.00000000E+00  0.00000000E+00  0.00000000E+00
  0.00000000E+00  0.00000000E+00  0.00000000E+00
  0.00000000E+00  0.00000000E+00  0.00000000E+00
  0.00000000E+00  0.00000000E+00  0.00000000E+00
  0.00000000E+00  0.00000000E+00  0.00000000E+00
  0.00000000E+00  0.00000000E+00  0.00000000E+00
  0.00000000E+00  0.00000000E+00  0.00000000E+00
  0.00000000E+00  0.00000000E+00  0.00000000E+00
  0.00000000E+00  0.00000000E+00  0.00000000E+00
  0.00000000E+00  0.00000000E+00  0.00000000E+00
  0.00000000E+00  0.00000000E+00  0.00000000E+00
  0.00000000E+00  0.00000000E+00  0.00000000E+00
  0.00000000E+00  0.00000000E+00  0.00000000E+00
  0.00000000E+00  0.00000000E+00  0.00000000E+00
  0.00000000E+00  0.00000000E+00  0.00000000E+00
  0.00000000E+00  0.00000000E+00  0.00000000E+00
  0.00000000E+00  0.00000000E+00  0.00000000E+00
  0.00000000E+00  0.00000000E+00  0.00000000E+00
  0.00000000E+00  0.00000000E+00  0.00000000E+00
  0.00000000E+00  0.00000000E+00  0.00000000E+00
  0.00000000E+00  0.00000000E+00  0.00000000E+00
  0.00000000E+00  0.00000000E+00  0.00000000E+00
  0.00000000E+00  0.00000000E+00  0.00000000E+00
  0.00000000E+00  0.00000000E+00  0.00000000E+00
  0.00000000E+00  0.00000000E+00  0.00000000E+00
  0.00000000E+00  0.00000000E+00  0.00000000E+00
  0.00000000E+00  0.00000000E+00  0.00000000E+00
  0.00000000E+00  0.00000000E+00  0.00000000E+00
  0.00000000E+00  0.00000000E+00  0.00000000E+00
  0.00000000E+00  0.00000000E+00  0.00000000E+00
  0.00000000E+00  0.00000000E+00  0.00000000E+00
  0.00000000E+00  0.00000000E+00  0.00000000E+00
  0.00000000E+00  0.00000000E+00  0.00000000E+00
  0.00000000E+00  0.00000000E+00  0.00000000E+00
  0.00000000E+00  0.00000000E+00  0.00000000E+00
  0.00000000E+00  0.00000000E+00  0.00000000E+00
  0.00000000E+00  0.00000000E+00  0.00000000E+00
  0.00000000E+00  0.00000000E+00  0.00000000E+00
  0.00000000E+00  0.00000000E+00  0.00000000E+00
  0.00000000E+00  0.00000000E+00  0.00000000E+00
  0.00000000E+00  0.00000000E+00  0.00000000E+00
  0.00000000E+00  0.00000000E+00  0.00000000E+00
  0.00000000E+00  0.00000000E+00  0.00000000E+00
  0.00000000E+00  0.00000000E+00  0.00000000E+00
  0.00000000E+00  0.00000000E+00  0.00000000E+00
  0.00000000E+00  0.00000000E+00  0.00000000E+00
  0.00000000E+00  0.00000000E+00  0.00000000E+00
  0.00000000E+00  0.00000000E+00  0.00000000E+00
  0.00000000E+00  0.00000000E+00  0.00000000E+00
  0.00000000E+00  0.00000000E+00  0.00000000E+00
  0.00000000E+00  0.00000000E+00  0.00000000E+00
  0.00000000E+00  0.00000000E+00  0.00000000E+00
  0.00000000E+00  0.00000000E+00  0.00000000E+00
  0.00000000E+00  0.00000000E+00  0.00000000E+00
  0.00000000E+00  0.00000000E+00  0.00000000E+00
  0.00000000E+00  0.00000000E+00  0.00000000E+00
  0.00000000E+00  0.00000000E+00  0.00000000E+00
  0.00000000E+00  0.00000000E+00  0.00000000E+00
  0.00000000E+00  0.00000000E+00  0.00000000E+00
  0.00000000E+00  0.00000000E+00  0.00000000E+00
  0.00000000E+00  0.00000000E+00  0.00000000E+00
  0.00000000E+00  0.00000000E+00  0.00000000E+00
  0.00000000E+00  0.00000000E+00  0.00000000E+00
  0.00000000E+00  0.00000000E+00  0.00000000E+00
  0.00000000E+00  0.00000000E+00  0.00000000E+00
  0.00000000E+00  0.00000000E+00  0.00000000E+00
  0.00000000E+00  0.00000000E+00  0.00000000E+00
  0.00000000E+00  0.00000000E+00  0.00000000E+00
  0.00000000E+00  0.00000000E+00  0.00000000E+00
  0.00000000E+00  0.00000000E+00  0.00000000E+00
  0.00000000E+00  0.00000000E+00  0.00000000E+00
  0.00000000E+00  0.00000000E+00  0.00000000E+00
  0.00000000E+00  0.00000000E+00  0.00000000E+00
  0.00000000E+00  0.00000000E+00  0.00000000E+00
  0.00000000E+00  0.00000000E+00  0.00000000E+00
  0.00000000E+00  0.00000000E+00  0.00000000E+00
  0.00000000E+00  0.00000000E+00  0.00000000E+00
  0.00000000E+00  0.00000000E+00  0.00000000E+00
  0.00000000E+00  0.00000000E+00  0.00000000E+00
  0.00000000E+00  0.00000000E+00  0.00000000E+00
  0.00000000E+00  0.00000000E+00  0.00000000E+00
  0.00000000E+00  0.00000000E+00  0.00000000E+00
  0.00000000E+00  0.00000000E+00  0.00000000E+00
  0.00000000E+00  0.00000000E+00  0.00000000E+00
  0.00000000E+00  0.00000000E+00  0.00000000E+00
  0.00000000E+00  0.00000000E+00  0.00000000E+00
  0.00000000E+00  0.00000000E+00  0.00000000E+00
  0.00000000E+00  0.00000000E+00  0.00000000E+00
  0.00000000E+00  0.00000000E+00  0.00000000E+00
  0.00000000E+00  0.00000000E+00  0.00000000E+00
  0.00000000E+00  0.00000000E+00  0.00000000E+00
  0.00000000E+00  0.00000000E+00  0.00000000E+00
  0.00000000E+00  0.00000000E+00  0.00000000E+00
  0.00000000E+00  0.00000000E+00  0.00000000E+00
  0.00000000E+00  0.00000000E+00  0.00000000E+00
  0.00000000E+00  0.00000000E+00  0.00000000E+00
  0.00000000E+00  0.00000000E+00  0.00000000E+00
  0.00000000E+00  0.00000000E+00  0.00000000E+00
  0.00000000E+00  0.00000000E+00  0.00000000E+00
  0.00000000E+00  0.00000000E+00  0.00000000E+00
  0.00000000E+00  0.00000000E+00  0.00000000E+00
  0.00000000E+00  0.00000000E+00  0.00000000E+00
  0.00000000E+00  0.00000000E+00  0.00000000E+00
  0.00000000E+00  0.00000000E+00  0.00000000E+00
  0.00000000E+00  0.00000000E+00  0.00000000E+00
  0.00000000E+00  0.00000000E+00  0.00000000E+00
  0.00000000E+00  0.00000000E+00  0.00000000E+00
  0.00000000E+00  0.00000000E+00  0.00000000E+00
  0.00000000E+00  0.00000000E+00  0.00000000E+00
  0.00000000E+00  0.00000000E+00  0.00000000E+00
  0.00000000E+00  0.00000000E+00  0.00000000E+00
  0.00000000E+00  0.00000000E+00  0.00000000E+00
  0.00000000E+00  0.00000000E+00  0.00000000E+00
  0.00000000E+00  0.00000000E+00  0.00000000E+00
  0.00000000E+00  0.00000000E+00  0.00000000E+00
  0.00000000E+00  0.00000000E+00  0.00000000E+00
  0.00000000E+00  0.00000000E+00  0.00000000E+00
  0.00000000E+00  0.00000000E+00  0.00000000E+00
  0.00000000E+00  0.00000000E+00  0.00000000E+00
  0.00000000E+00  0.00000000E+00  0.00000000E+00
  0.00000000E+00  0.00000000E+00  0.00000000E+00
  0.00000000E+00  0.00000000E+00  0.00000000E+00
  0.00000000E+00  0.00000000E+00  0.00000000E+00
  0.00000000E+00  0.00000000E+00  0.00000000E+00
  0.00000000E+00  0.00000000E+00  0.00000000E+00
  0.00000000E+00  0.00000000E+00  0.00000000E+00
  0.00000000E+00  0.00000000E+00  0.00000000E+00
  0.00000000E+00  0.00000000E+00  0.00000000E+00
  0.00000000E+00  0.00000000E+00  0.00000000E+00
  0.00000000E+00  0.00000000E+00  0.00000000E+00
  0.00000000E+00  0.00000000E+00  0.00000000E+00
  0.00000000E+00  0.00000000E+00  0.00000000E+00
  0.00000000E+00  0.00000000E+00  0.00000000E+00
  0.00000000E+00  0.00000000E+00  0.00000000E+00
  0.00000000E+00  0.00000000E+00  0.00000000E+00
  0.00000000E+00  0.00000000E+00  0.00000000E+00
  0.00000000E+00  0.00000000E+00  0.00000000E+00
  0.00000000E+00  0.00000000E+00  0.00000000E+00
  0.00000000E+00  0.00000000E+00  0.00000000E+00
  0.00000000E+00  0.00000000E+00  0.00000000E+00
  0.00000000E+00  0.00000000E+00  0.00000000E+00
  0.00000000E+00  0.00000000E+00  0.00000000E+00
  0.00000000E+00  0.00000000E+00  0.00000000E+00
  0.00000000E+00  0.00000000E+00  0.00000000E+00
  0.00000000E+00  0.00000000E+00  0.00000000E+00
  0.00000000E+00  0.00000000E+00  0.00000000E+00
  0.00000000E+00  0.00000000E+00  0.00000000E+00
  0.00000000E+00  0.00000000E+00  0.00000000E+00
  0.00000000E+00  0.00000000E+00  0.00000000E+00
  0.00000000E+00  0.00000000E+00  0.00000000E+00
  0.00000000E+00  0.00000000E+00  0.00000000E+00
  0.00000000E+00  0.00000000E+00  0.00000000E+00
  0.00000000E+00  0.00000000E+00  0.00000000E+00
  0.00000000E+00  0.00000000E+00  0.00000000E+00
  0.00000000E+00  0.00000000E+00  0.00000000E+00
  0.00000000E+00  0.00000000E+00  0.00000000E+00
  0.00000000E+00  0.00000000E+00  0.00000000E+00
  0.00000000E+00  0.00000000E+00  0.00000000E+00
  0.00000000E+00  0.00000000E+00  0.00000000E+00
  0.00000000E+00  0.00000000E+00  0.00000000E+00
  0.00000000E+00  0.00000000E+00  0.00000000E+00
  0.00000000E+00  0.00000000E+00  0.00000000E+00
  0.00000000E+00  0.00000000E+00  0.00000000E+00
  0.00000000E+00  0.00000000E+00  0.00000000E+00
  0.00000000E+00  0.00000000E+00  0.00000000E+00
  0.00000000E+00  0.00000000E+00  0.00000000E+00
  0.00000000E+00  0.00000000E+00  0.00000000E+00
  0.00000000E+00  0.00000000E+00  0.00000000E+00
  0.00000000E+00  0.00000000E+00  0.00000000E+00
  0.00000000E+00  0.00000000E+00  0.00000000E+00
  0.00000000E+00  0.00000000E+00  0.00000000E+00
  0.00000000E+00  0.00000000E+00  0.00000000E+00
  0.00000000E+00  0.00000000E+00  0.00000000E+00
  0.00000000E+00  0.00000000E+00  0.00000000E+00
  0.00000000E+00  0.00000000E+00  0.00000000E+00
  0.00000000E+00  0.00000000E+00  0.00000000E+00
  0.00000000E+00  0.00000000E+00  0.00000000E+00
  0.00000000E+00  0.00000000E+00  0.00000000E+00
  0.00000000E+00  0.00000000E+00  0.00000000E+00
  0.00000000E+00  0.00000000E+00  0.00000000E+00
  0.00000000E+00  0.00000000E+00  0.00000000E+00
  0.00000000E+00  0.00000000E+00  0.00000000E+00
  0.00000000E+00  0.00000000E+00  0.00000000E+00
  0.00000000E+00  0.00000000E+00  0.00000000E+00
  0.00000000E+00  0.00000000E+00  0.00000000E+00
  0.00000000E+00  0.00000000E+00  0.00000000E+00
  0.00000000E+00  0.00000000E+00  0.00000000E+00
  0.00000000E+00  0.00000000E+00  0.00000000E+00
  0.00000000E+00  0.00000000E+00  0.00000000E+00
  0.00000000E+00  0.00000000E+00  0.00000000E+00
  0.00000000E+00  0.00000000E+00  0.00000000E+00
  0.00000000E+00  0.00000000E+00  0.00000000E+00
  0.00000000E+00  0.00000000E+00  0.00000000E+00
  0.00000000E+00  0.00000000E+00  0.00000000E+00
  0.00000000E+00  0.00000000E+00  0.00000000E+00
  0.00000000E+00  0.00000000E+00  0.00000000E+00
  0.00000000E+00  0.00000000E+00  0.00000000E+00
  0.00000000E+00  0.00000000E+00  0.00000000E+00
  0.00000000E+00  0.00000000E+00  0.00000000E+00
  0.00000000E+00  0.00000000E+00  0.00000000E+00
  0.00000000E+00  0.00000000E+00  0.00000000E+00
  0.00000000E+00  0.00000000E+00  0.00000000E+00
  0.00000000E+00  0.00000000E+00  0.00000000E+00
  0.00000000E+00  0.00000000E+00  0.00000000E+00
  0.00000000E+00  0.00000000E+00  0.00000000E+00
  0.00000000E+00  0.00000000E+00  0.00000000E+00
  0.00000000E+00  0.00000000E+00  0.00000000E+00
  0.00000000E+00  0.00000000E+00  0.00000000E+00
  0.00000000E+00  0.00000000E+00  0.00000000E+00
